*SPEF "IEEE 1481-1998"
*DESIGN "global_ctrl"
*DATE "Tue Apr 28 17:05:02 2026"
*VENDOR "Cadence Design Systems, Inc."
*PROGRAM "Innovus"
*VERSION "19.12-s087_1"
*DESIGN_FLOW "COUPLING C" "PIN_CAP NONE" "NAME_SCOPE LOCAL"
*DIVIDER /
*DELIMITER :
*BUS_DELIMITER []
*T_UNIT 1 NS
*C_UNIT 1 PF
*R_UNIT 1 OHM
*L_UNIT 1 HENRY

// MMMC spef file for corner 'fast_rc'

*NAME_MAP

*1 FE_PHN71_col_id_6
*2 FE_PHN70_n1320
*3 FE_PHN69_n177
*4 FE_PHN68_n133
*5 FE_PHN67_n131
*6 FE_PHN66_n129
*7 FE_PHN65_n820
*8 FE_PHN64_n1300
*9 FE_PHN63_n1280
*10 FE_PHN62_n127
*11 FE_PHN61_dl_next_state
*12 FE_PHN60_col_id_2
*13 FE_PHN59_col_id_4
*14 FE_PHN58_n93
*15 FE_PHN57_dl_cur_state
*16 FE_PHN56_col_id_6
*17 FE_PHN55_row_id_2
*18 FE_PHN54_p_en_d1
*19 FE_PHN53_col_id_8
*20 FE_PHN52_col_id_0
*21 FE_PHN51_phase_row_id_0
*22 FE_PHN50_n208
*23 FE_PHN49_n182
*24 FE_PHN48_n187
*25 FE_PHN47_n185
*26 FE_PHN46_FE_OFN25_couple_en
*27 FE_PHN45_phase_row_id_1
*28 FE_PHN44_n204
*29 FE_PHN43_dl_cur_state_d1
*30 FE_PHN42_rd_row_id_1
*31 FE_PHN41_phase_row_id_d1_1
*32 FE_PHN40_ul_cur_state_1
*33 FE_PHN39_phase_row_id_d1_2
*34 FE_PHN38_rd_row_id_0
*35 FE_PHN37_rd_row_id_2
*36 FE_PHN36_wr_data_in_g_d1
*37 FE_PHN35_phase_row_id_d1_0
*38 FE_PHN34_phase_row_id_2
*39 FE_PHN33_row_id_0
*40 CTS_1
*41 FE_OFN32_n1610
*42 FE_OFN31_n1590
*43 FE_OFN30_p_out_g
*44 FE_OFN29_p_out_vld_g
*45 FE_OFN28_rd_data_out_g
*46 FE_OFN27_rd_vld_g
*47 FE_OFN26_wr_data_in_g_d2
*48 FE_OFN25_couple_en
*49 FE_OFN24_rstn
*50 FE_OFN23_p_code_vld_bus_0
*51 FE_OFN22_p_code_vld_bus_1
*52 FE_OFN21_p_code_vld_bus_2
*53 FE_OFN20_p_code_vld_bus_3
*54 FE_OFN19_p_code_vld_bus_4
*55 FE_OFN18_p_code_vld_bus_5
*56 FE_OFN17_p_code_vld_bus_6
*57 FE_OFN16_p_code_vld_bus_7
*58 FE_OFN15_rd_rdy_bus_0
*59 FE_OFN14_rd_rdy_bus_1
*60 FE_OFN13_rd_rdy_bus_2
*61 FE_OFN12_rd_rdy_bus_3
*62 FE_OFN11_rd_rdy_bus_4
*63 FE_OFN10_rd_rdy_bus_5
*64 FE_OFN9_rd_rdy_bus_6
*65 FE_OFN8_rd_rdy_bus_7
*66 FE_OFN7_wr_vld_bus_0
*67 FE_OFN6_wr_vld_bus_1
*68 FE_OFN5_wr_vld_bus_2
*69 FE_OFN4_wr_vld_bus_3
*70 FE_OFN3_wr_vld_bus_4
*71 FE_OFN2_wr_vld_bus_5
*72 FE_OFN1_wr_vld_bus_6
*73 FE_OFN0_wr_vld_bus_7
*74 rd_vld_bus[7]
*75 rd_vld_bus[6]
*76 rd_vld_bus[5]
*77 rd_vld_bus[4]
*78 rd_vld_bus[3]
*79 rd_vld_bus[2]
*80 rd_vld_bus[1]
*81 rd_vld_bus[0]
*82 rd_data_out_bus[7]
*83 rd_data_out_bus[6]
*84 rd_data_out_bus[5]
*85 rd_data_out_bus[4]
*86 rd_data_out_bus[3]
*87 rd_data_out_bus[2]
*88 rd_data_out_bus[1]
*89 rd_data_out_bus[0]
*90 p_out_vld_bus[7]
*91 p_out_vld_bus[6]
*92 p_out_vld_bus[5]
*93 p_out_vld_bus[4]
*94 p_out_vld_bus[3]
*95 p_out_vld_bus[2]
*96 p_out_vld_bus[1]
*97 p_out_vld_bus[0]
*98 p_out_bus[7]
*99 p_out_bus[6]
*100 p_out_bus[5]
*101 p_out_bus[4]
*102 p_out_bus[3]
*103 p_out_bus[2]
*104 p_out_bus[1]
*105 p_out_bus[0]
*106 wr_vld_bus[7]
*107 wr_vld_bus[6]
*108 wr_vld_bus[5]
*109 wr_vld_bus[4]
*110 wr_vld_bus[3]
*111 wr_vld_bus[2]
*112 wr_vld_bus[1]
*113 wr_vld_bus[0]
*114 rd_rdy_bus[7]
*115 rd_rdy_bus[6]
*116 rd_rdy_bus[5]
*117 rd_rdy_bus[4]
*118 rd_rdy_bus[3]
*119 rd_rdy_bus[2]
*120 rd_rdy_bus[1]
*121 rd_rdy_bus[0]
*122 p_code_vld_bus[7]
*123 p_code_vld_bus[6]
*124 p_code_vld_bus[5]
*125 p_code_vld_bus[4]
*126 p_code_vld_bus[3]
*127 p_code_vld_bus[2]
*128 p_code_vld_bus[1]
*129 p_code_vld_bus[0]
*130 clk
*131 rstn
*132 p_en
*133 en_g
*134 wr_data_in_g
*135 couple_en
*136 wr_data_in_g_d2
*137 rd_vld_g
*138 rd_data_out_g
*139 p_out_vld_g
*140 p_out_g
*141 en_g_d1
*142 wr_data_in_g_d1
*143 p_en_d1
*144 p_en_d2
*145 n72
*146 n73
*147 n74
*148 n75
*149 n76
*150 n77
*151 n78
*152 n79
*153 n800
*154 n810
*155 n820
*156 n880
*157 n890
*158 n900
*159 ul_cur_state_d1_0_
*160 n93
*161 n960
*162 dl_cur_state
*163 dl_next_state
*164 n127
*165 n1280
*166 n129
*167 n1300
*168 n131
*169 n1320
*170 n133
*171 n1340
*172 n135
*173 n1360
*174 n137
*175 n1380
*176 n139
*177 n1400
*178 n141
*179 dl_cur_state_d1
*180 dl_cur_state_d2
*181 n1440
*182 n1460
*183 n147
*184 n1480
*185 n149
*186 n1500
*187 n1510
*188 n1520
*189 n1530
*190 n1540
*191 n1550
*192 n1560
*193 n1570
*194 n1580
*195 n1590
*196 n1600
*197 n1610
*198 n1620
*199 n80
*200 n81
*201 n82
*202 n83
*203 n84
*204 n85
*205 n86
*206 n87
*207 n88
*208 n89
*209 n150
*210 n151
*211 n152
*212 n153
*213 n154
*214 n155
*215 n156
*216 n157
*217 n158
*218 n159
*219 n160
*220 n161
*221 n162
*222 n163
*223 n164
*224 n165
*225 n166
*226 n167
*227 n168
*228 n169
*229 n170
*230 n171
*231 n172
*232 n173
*233 n174
*234 n175
*235 n176
*236 n177
*237 n178
*238 n179
*239 n180
*240 n181
*241 n182
*242 n183
*243 n184
*244 n185
*245 n186
*246 n187
*247 n188
*248 n189
*249 n190
*250 n191
*251 n192
*252 n193
*253 n194
*254 n195
*255 n196
*256 n197
*257 n198
*258 n199
*259 n200
*260 n201
*261 n202
*262 n203
*263 n204
*264 n205
*265 n206
*266 n207
*267 n208
*268 n209
*269 n210
*270 n211
*271 n212
*272 n213
*273 n214
*274 n215
*275 n216
*276 n217
*277 n218
*278 n219
*279 n220
*280 n221
*281 n222
*282 n223
*283 n224
*284 n225
*285 n226
*286 n227
*287 n228
*288 n229
*289 n230
*290 n231
*291 n232
*292 n233
*293 n234
*294 n235
*295 n236
*296 n237
*297 n238
*298 n239
*299 n240
*300 n241
*301 n242
*302 n243
*303 n244
*304 n245
*305 n246
*306 n247
*307 n248
*308 n249
*309 n250
*310 n251
*311 n252
*312 n253
*313 n254
*314 n255
*315 n256
*316 n257
*317 n258
*318 ul_cur_state[1]
*319 ul_cur_state[0]
*320 col_id[10]
*321 col_id[9]
*322 col_id[8]
*323 col_id[7]
*324 col_id[6]
*325 col_id[5]
*326 col_id[4]
*327 col_id[3]
*328 col_id[2]
*329 col_id[1]
*330 col_id[0]
*331 row_id[2]
*332 row_id[1]
*333 row_id[0]
*334 rd_row_id[2]
*335 rd_row_id[1]
*336 rd_row_id[0]
*337 rd_row_id_d1[2]
*338 rd_row_id_d1[1]
*339 rd_row_id_d1[0]
*340 phase_col_id[6]
*341 phase_col_id[5]
*342 phase_col_id[4]
*343 phase_col_id[3]
*344 phase_col_id[2]
*345 phase_col_id[1]
*346 phase_col_id[0]
*347 phase_row_id[2]
*348 phase_row_id[1]
*349 phase_row_id[0]
*350 phase_row_id_d1[2]
*351 phase_row_id_d1[1]
*352 phase_row_id_d1[0]
*353 phase_row_id_d2[2]
*354 phase_row_id_d2[1]
*355 phase_row_id_d2[0]
*356 FE_PHC71_col_id_6
*357 FE_PHC70_n1320
*358 FE_PHC69_n177
*359 FE_PHC68_n133
*360 FE_PHC67_n131
*361 FE_PHC66_n129
*362 FE_PHC65_n820
*363 FE_PHC64_n1300
*364 FE_PHC63_n1280
*365 FE_PHC62_n127
*366 FE_PHC61_dl_next_state
*367 FE_PHC60_col_id_2
*368 FE_PHC59_col_id_4
*369 FE_PHC58_n93
*370 FE_PHC57_dl_cur_state
*371 FE_PHC56_col_id_6
*372 FE_PHC55_row_id_2
*373 FE_PHC54_p_en_d1
*374 FE_PHC53_col_id_8
*375 FE_PHC52_col_id_0
*376 FE_PHC51_phase_row_id_0
*377 FE_PHC50_n208
*378 FE_PHC49_n182
*379 FE_PHC48_n187
*380 FE_PHC47_n185
*381 FE_PHC46_FE_OFN25_couple_en
*382 FE_PHC45_phase_row_id_1
*383 FE_PHC44_n204
*384 FE_PHC43_dl_cur_state_d1
*385 FE_PHC42_rd_row_id_1
*386 FE_PHC41_phase_row_id_d1_1
*387 FE_PHC40_ul_cur_state_1
*388 FE_PHC39_phase_row_id_d1_2
*389 FE_PHC38_rd_row_id_0
*390 FE_PHC37_rd_row_id_2
*391 FE_PHC36_wr_data_in_g_d1
*392 FE_PHC35_phase_row_id_d1_0
*393 FE_PHC34_phase_row_id_2
*394 FE_PHC33_row_id_0
*395 CTS_ccl_a_buf_00003
*396 FE_OFC32_n1610
*397 FE_OFC31_n1590
*398 FE_OFC30_p_out_g
*399 FE_OFC29_p_out_vld_g
*400 FE_OFC28_rd_data_out_g
*401 FE_OFC27_rd_vld_g
*402 FE_OFC26_wr_data_in_g_d2
*403 FE_OFC25_couple_en
*404 FE_OFC24_rstn
*405 FE_OFC23_p_code_vld_bus_0
*406 FE_OFC22_p_code_vld_bus_1
*407 FE_OFC21_p_code_vld_bus_2
*408 FE_OFC20_p_code_vld_bus_3
*409 FE_OFC19_p_code_vld_bus_4
*410 FE_OFC18_p_code_vld_bus_5
*411 FE_OFC17_p_code_vld_bus_6
*412 FE_OFC16_p_code_vld_bus_7
*413 FE_OFC15_rd_rdy_bus_0
*414 FE_OFC14_rd_rdy_bus_1
*415 FE_OFC13_rd_rdy_bus_2
*416 FE_OFC12_rd_rdy_bus_3
*417 FE_OFC11_rd_rdy_bus_4
*418 FE_OFC10_rd_rdy_bus_5
*419 FE_OFC9_rd_rdy_bus_6
*420 FE_OFC8_rd_rdy_bus_7
*421 FE_OFC7_wr_vld_bus_0
*422 FE_OFC6_wr_vld_bus_1
*423 FE_OFC5_wr_vld_bus_2
*424 FE_OFC4_wr_vld_bus_3
*425 FE_OFC3_wr_vld_bus_4
*426 FE_OFC2_wr_vld_bus_5
*427 FE_OFC1_wr_vld_bus_6
*428 FE_OFC0_wr_vld_bus_7
*429 en_g_d1_reg
*430 wr_data_in_g_d1_reg
*431 p_en_d1_reg
*432 p_en_d2_reg
*433 col_id_reg_0_
*434 ul_cur_state_reg_1_
*435 ul_cur_state_reg_0_
*436 col_id_reg_1_
*437 col_id_reg_2_
*438 col_id_reg_3_
*439 col_id_reg_4_
*440 col_id_reg_5_
*441 col_id_reg_6_
*442 col_id_reg_7_
*443 col_id_reg_8_
*444 col_id_reg_9_
*445 col_id_reg_10_
*446 row_id_reg_0_
*447 row_id_reg_1_
*448 row_id_reg_2_
*449 rd_row_id_reg_2_
*450 rd_row_id_reg_1_
*451 rd_row_id_reg_0_
*452 rd_row_id_d1_reg_2_
*453 rd_row_id_d1_reg_1_
*454 rd_row_id_d1_reg_0_
*455 phase_col_id_reg_0_
*456 dl_cur_state_reg
*457 phase_col_id_reg_1_
*458 phase_col_id_reg_2_
*459 phase_col_id_reg_3_
*460 phase_col_id_reg_4_
*461 phase_col_id_reg_5_
*462 phase_col_id_reg_6_
*463 phase_row_id_reg_0_
*464 phase_row_id_reg_1_
*465 phase_row_id_reg_2_
*466 dl_cur_state_d1_reg
*467 dl_cur_state_d2_reg
*468 phase_row_id_d1_reg_2_
*469 phase_row_id_d2_reg_2_
*470 phase_row_id_d1_reg_1_
*471 phase_row_id_d2_reg_1_
*472 phase_row_id_d1_reg_0_
*473 phase_row_id_d2_reg_0_
*474 ul_cur_state_d1_reg_0_
*475 wr_data_in_g_d2_reg
*476 rd_data_out_g_reg
*477 rd_vld_g_reg
*478 p_code_vld_bus_reg_7_
*479 p_code_vld_bus_reg_6_
*480 p_code_vld_bus_reg_5_
*481 p_code_vld_bus_reg_4_
*482 p_code_vld_bus_reg_3_
*483 p_code_vld_bus_reg_2_
*484 p_code_vld_bus_reg_1_
*485 p_code_vld_bus_reg_0_
*486 p_out_g_reg
*487 p_out_vld_g_reg
*488 wr_vld_bus_reg_7_
*489 wr_vld_bus_reg_6_
*490 wr_vld_bus_reg_5_
*491 wr_vld_bus_reg_4_
*492 wr_vld_bus_reg_3_
*493 wr_vld_bus_reg_2_
*494 wr_vld_bus_reg_1_
*495 wr_vld_bus_reg_0_
*496 rd_rdy_bus_reg_7_
*497 rd_rdy_bus_reg_6_
*498 rd_rdy_bus_reg_5_
*499 rd_rdy_bus_reg_4_
*500 rd_rdy_bus_reg_3_
*501 rd_rdy_bus_reg_2_
*502 rd_rdy_bus_reg_1_
*503 rd_rdy_bus_reg_0_
*504 couple_en_reg
*505 U142
*506 U203
*507 U204
*508 U205
*509 U206
*510 U207
*511 U208
*512 U209
*513 U210
*514 U211
*515 U212
*516 U213
*517 U214
*518 U215
*519 U216
*520 U217
*521 U218
*522 U219
*523 U220
*524 U221
*525 U222
*526 U223
*527 U224
*528 U225
*529 U226
*530 U227
*531 U228
*532 U229
*533 U230
*534 U231
*535 U232
*536 U233
*537 U234
*538 U235
*539 U236
*540 U237
*541 U238
*542 U239
*543 U240
*544 U241
*545 U242
*546 U243
*547 U244
*548 U245
*549 U246
*550 U247
*551 U248
*552 U249
*553 U250
*554 U251
*555 U252
*556 U253
*557 U254
*558 U255
*559 U256
*560 U257
*561 U258
*562 U259
*563 U260
*564 U261
*565 U262
*566 U263
*567 U264
*568 U265
*569 U266
*570 U267
*571 U268
*572 U269
*573 U270
*574 U271
*575 U272
*576 U273
*577 U274
*578 U275
*579 U276
*580 U277
*581 U278
*582 U279
*583 U280
*584 U281
*585 U282
*586 U283
*587 U284
*588 U285
*589 U286
*590 U287
*591 U288
*592 U289
*593 U290
*594 U291
*595 U292
*596 U293
*597 U294
*598 U295
*599 U296
*600 U297
*601 U298
*602 U299
*603 U300
*604 U301
*605 U302
*606 U303
*607 U304
*608 U305
*609 U306
*610 U307
*611 U308
*612 U309
*613 U310
*614 U311
*615 U312
*616 U313
*617 U314
*618 U315
*619 U316
*620 U317
*621 U318
*622 U319
*623 U320
*624 U321
*625 U322
*626 U323
*627 U324
*628 U325
*629 U326
*630 U327
*631 U328
*632 U329
*633 U330
*634 U331
*635 U332
*636 U333
*637 U334
*638 U335
*639 U336
*640 U337
*641 U338
*642 U339
*643 U340
*644 U341
*645 U342
*646 U343
*647 U344
*648 U345
*649 U346
*650 U347
*651 U348
*652 U349
*653 U350
*654 U351
*655 U352
*656 U353
*657 U354
*658 U355
*659 U356
*660 U357
*661 U358
*662 U359
*663 U360
*664 U361
*665 U362
*666 U363
*667 U364
*668 U365
*669 U366
*670 U367
*671 U368
*672 U369
*673 U370


*PORTS

*130 I *C 0 1
*131 I *C 0 1.5
*132 I *C 0 2
*133 I *C 0 2.5
*134 I *C 0 3
*74 I *C 288.5 0
*75 I *C 251.25 0
*76 I *C 214 0
*77 I *C 176.75 0
*78 I *C 139.5 0
*79 I *C 102.25 0
*80 I *C 65 0
*81 I *C 27.75 0
*82 I *C 289.6 0
*83 I *C 252.35 0
*84 I *C 215.1 0
*85 I *C 177.85 0
*86 I *C 140.6 0
*87 I *C 103.35 0
*88 I *C 66.1 0
*89 I *C 28.85 0
*90 I *C 291.8 0
*91 I *C 254.55 0
*92 I *C 217.3 0
*93 I *C 180.05 0
*94 I *C 142.8 0
*95 I *C 105.55 0
*96 I *C 68.3 0
*97 I *C 31.05 0
*98 I *C 292.9 0
*99 I *C 255.65 0
*100 I *C 218.4 0
*101 I *C 181.15 0
*102 I *C 143.9 0
*103 I *C 106.65 0
*104 I *C 69.4 0
*105 I *C 32.15 0
*135 O *C 0 0.1
*136 O *C 1.2 0
*137 O *C 0 3.5
*138 O *C 0 4
*106 O *C 286.3 0
*107 O *C 249.05 0
*108 O *C 211.8 0
*109 O *C 174.55 0
*110 O *C 137.3 0
*111 O *C 100.05 0
*112 O *C 62.8 0
*113 O *C 25.55 0
*114 O *C 287.4 0
*115 O *C 250.15 0
*116 O *C 212.9 0
*117 O *C 175.65 0
*118 O *C 138.4 0
*119 O *C 101.15 0
*120 O *C 63.9 0
*121 O *C 26.65 0
*122 O *C 290.7 0
*123 O *C 253.45 0
*124 O *C 216.2 0
*125 O *C 178.95 0
*126 O *C 141.7 0
*127 O *C 104.45 0
*128 O *C 67.2 0
*129 O *C 29.95 0
*139 O *C 0 4.5
*140 O *C 0 5


*D_NET *1 0.000497103

*CONN
*I *356:Z O *C 282.35 5.5 *L 0 *D CKBD1BWP
*I *612:A1 I *C 280.53 5.08 *L 0.000464 *D OA211D0BWP

*CAP
1 *356:Z 5.32269e-05
2 *612:A1 0.000195324
3 *1:2 0.000248551

*RES
1 *612:A1 *1:2 11.1477
2 *1:2 *356:Z 8.33166
*END

*D_NET *2 0.000216365

*CONN
*I *357:I I *C 232.65 4.1 *L 0.000884 *D DEL050D1BWP
*I *578:ZN O *C 232.09 3.54 *L 0 *D AOI211D0BWP

*CAP
1 *357:I 8.20756e-05
2 *578:ZN 2.61068e-05
3 *2:2 0.000108182

*RES
1 *2:2 *578:ZN 2.21896
2 *357:I *2:2 3.53408
*END

*D_NET *3 0.000260472

*CONN
*I *358:Z O *C 55.69 5.5 *L 0 *D CKBD1BWP
*I *599:A1 I *C 54.85 5.22 *L 0.000423 *D CKND2D0BWP

*CAP
1 *358:Z 6.07371e-05
2 *599:A1 6.9499e-05
3 *3:2 0.000130236

*RES
1 *599:A1 *3:2 3.2115
2 *3:2 *358:Z 2.87271
*END

*D_NET *4 0.000444055

*CONN
*I *359:Z O *C 237.97 3.54 *L 0 *D DEL100D1BWP
*I *462:D I *C 236.71 2.7 *L 0.000567 *D DFCNQD1BWP

*CAP
1 *359:Z 7.55191e-05
2 *462:D 0.000146508
3 *4:2 0.000222027

*RES
1 *462:D *4:2 7.69007
2 *4:2 *359:Z 3.13568
*END

*D_NET *5 0.000528693

*CONN
*I *360:Z O *C 231.11 3.54 *L 0 *D DEL050D1BWP
*I *460:D I *C 230.41 5.22 *L 0.000567 *D DFCNQD1BWP

*CAP
1 *360:Z 5.40614e-05
2 *460:D 0.000210285
3 *5:2 0.000264347

*RES
1 *460:D *5:2 8.57592
2 *5:2 *360:Z 2.72703
*END

*D_NET *6 0.00046587

*CONN
*I *361:Z O *C 224.81 2.98 *L 0 *D DEL050D1BWP
*I *458:D I *C 223.27 2.7 *L 0.000567 *D DFCNQD1BWP

*CAP
1 *361:Z 8.30293e-05
2 *458:D 9.85861e-05
3 *6:2 0.000181615
4 *6:2 *240:9 0.000102639

*RES
1 *458:D *6:2 6.84905
2 *6:2 *361:Z 5.98979
*END

*D_NET *7 0.000541806

*CONN
*I *362:Z O *C 255.19 3.54 *L 0 *D DEL100D1BWP
*I *445:D I *C 253.93 2.7 *L 0.000567 *D DFCNQD1BWP

*CAP
1 *362:Z 8.36253e-05
2 *445:D 5.47171e-05
3 *7:2 0.000116348
4 *7:3 8.744e-05
5 *445:D *240:7 9.64403e-05
6 *7:2 *99:3 0.000103235

*RES
1 *445:D *7:3 3.72338
2 *7:3 *7:2 2.28024
3 *7:2 *362:Z 6.0817
*END

*D_NET *8 0.000436902

*CONN
*I *363:Z O *C 226.49 3.54 *L 0 *D DEL050D1BWP
*I *459:D I *C 225.79 2.7 *L 0.000567 *D DFCNQD1BWP

*CAP
1 *363:Z 0.000126541
2 *459:D 9.19104e-05
3 *8:2 0.000218451

*RES
1 *459:D *8:2 4.66418
2 *8:2 *363:Z 5.36752
*END

*D_NET *9 0.000385046

*CONN
*I *364:Z O *C 218.09 3.54 *L 0 *D DEL050D1BWP
*I *457:D I *C 217.39 2.7 *L 0.000567 *D DFCNQD1BWP

*CAP
1 *364:Z 0.00011152
2 *457:D 8.10027e-05
3 *9:2 0.000192523

*RES
1 *457:D *9:2 4.66108
2 *9:2 *364:Z 5.48947
*END

*D_NET *10 0.000566959

*CONN
*I *365:Z O *C 214.59 5.5 *L 0 *D DEL100D1BWP
*I *455:D I *C 213.33 3.82 *L 0.000567 *D DFCNQD1BWP

*CAP
1 *365:Z 0.000147641
2 *455:D 8.91089e-05
3 *10:2 0.000194371
4 *10:3 0.000135839

*RES
1 *455:D *10:3 3.47221
2 *10:3 *10:2 2.28035
3 *10:2 *365:Z 6.41179
*END

*D_NET *11 0.000460267

*CONN
*I *366:Z O *C 207.59 3.54 *L 0 *D DEL050D1BWP
*I *456:D I *C 206.89 2.7 *L 0.000567 *D DFCNQD1BWP

*CAP
1 *366:Z 5.6088e-05
2 *456:D 0.000174046
3 *11:2 0.000230134

*RES
1 *456:D *11:2 7.56848
2 *11:2 *366:Z 4.79639
*END

*D_NET *12 0.000892758

*CONN
*I *367:Z O *C 265.83 3.54 *L 0 *D DEL050D1BWP
*I *587:A1 I *C 265.13 5.22 *L 0.000423 *D CKND2D0BWP
*I *588:A1 I *C 264.29 3.96 *L 0.000464 *D OA211D0BWP

*CAP
1 *587:A1 1.50204e-05
2 *588:A1 7.03335e-05
3 *367:Z 0.000114918
4 *12:3 0.000122309
5 *12:4 0.000228345
6 *12:5 0.000165641
7 *587:A1 *587:A2 8.44002e-05
8 *587:A1 *73:4 9.17912e-05

*RES
1 *12:5 *367:Z 4.1548
2 *12:4 *12:5 2.60663
3 *12:3 *12:4 3.77357
4 *588:A1 *12:4 6.62756
5 *587:A1 *12:3 5.41127
*END

*D_NET *13 0.000461578

*CONN
*I *368:Z O *C 282.63 2.98 *L 0 *D DEL050D1BWP
*I *591:A1 I *C 279.97 2.7 *L 0.000423 *D CKND2D0BWP
*I *592:A1 I *C 280.53 2.56 *L 0.000464 *D OA211D0BWP

*CAP
1 *368:Z 0.000103056
2 *592:A1 8.76188e-06
3 *591:A1 5.10812e-05
4 *13:3 0.000162899
5 *13:3 *326:4 0.000135779

*RES
1 *591:A1 *13:3 4.95768
2 *592:A1 *13:3 3.82018
3 *13:3 *368:Z 7.50649
*END

*D_NET *14 0.000116825

*CONN
*I *369:I I *C 116.03 3.82 *L 0.000497 *D BUFFD1BWP
*I *647:ZN O *C 115.61 3.68 *L 0 *D AOI31D2BWP

*CAP
1 *647:ZN 5.84126e-05
2 *369:I 5.84126e-05

*RES
1 *369:I *647:ZN 8.59737
*END

*D_NET *15 0.00357133

*CONN
*I *370:Z O *C 204.37 2.98 *L 0 *D DEL100D1BWP
*I *466:D I *C 188.83 5.22 *L 0.000567 *D DFCNQD1BWP
*I *523:I I *C 202.83 5.22 *L 0.000464 *D INVD0BWP
*I *516:B I *C 202.97 2.84 *L 0.00047 *D OAI31D0BWP

*CAP
1 *370:Z 3.60012e-05
2 *516:B 2.59876e-05
3 *523:I 9.53674e-06
4 *466:D 7.99894e-05
5 *15:4 0.000293374
6 *15:5 0.000328958
7 *15:6 0.000277162
8 *15:7 0.000279784
9 *15:8 0.000170648
10 *466:D *466:CP 4.18425e-05
11 *15:5 *40:109 8.22544e-06
12 *15:5 *432:CP 0.000161171
13 *466:D *536:A2 9.2864e-05
14 *15:7 *250:15 0.000370026
15 *15:6 *250:14 0.000370026
16 *15:7 *42:7 0.000772357
17 *15:5 *571:A1 0.000128567
18 *15:4 *426:I 0.000124812

*RES
1 *466:D *15:8 4.64725
2 *15:8 *15:7 4.90236
3 *15:7 *15:6 17.7265
4 *15:5 *15:4 11.0615
5 *15:6 *15:5 4.75132
6 *523:I *15:5 3.8203
7 *516:B *15:4 4.83537
8 *15:4 *370:Z 5.09953
*END

*D_NET *16 0.0012362

*CONN
*I *356:I I *C 281.93 5.22 *L 0.000656 *D CKBD1BWP
*I *371:Z O *C 282.91 5.5 *L 0 *D CKBD0BWP
*I *611:A1 I *C 277.59 3.82 *L 0.000423 *D CKND2D0BWP

*CAP
1 *371:Z 5.91278e-05
2 *356:I 7.98702e-06
3 *611:A1 0.000509799
4 *16:3 0.000100315
5 *16:4 0.000558972

*RES
1 *611:A1 *16:4 20.5479
2 *16:4 *16:3 0.82314
3 *356:I *16:4 3.8203
4 *16:3 *371:Z 4.79627
*END

*D_NET *17 0.00155532

*CONN
*I *372:Z O *C 70.67 3.54 *L 0 *D DEL050D1BWP
*I *670:A1 I *C 66.05 2.7 *L 0.000492 *D NR3D0BWP
*I *597:B2 I *C 71.51 3.82 *L 0.000448 *D IND3D0BWP

*CAP
1 *597:B2 8.75592e-05
2 *372:Z 2.43783e-05
3 *670:A1 0.000186563
4 *17:3 0.000537753
5 *17:4 0.000612378
6 *17:4 *615:A2 0.000106692

*RES
1 *17:4 *17:3 11.0068
2 *670:A1 *17:4 8.65602
3 *17:3 *372:Z 2.05874
4 *597:B2 *17:3 3.64435
*END

*D_NET *18 0.0257274

*CONN
*I *373:Z O *C 18.45 5.5 *L 0 *D BUFFD1BWP
*I *432:D I *C 204.23 5.22 *L 0.000567 *D DFCNQD1BWP

*CAP
1 *432:D 0.000113666
2 *373:Z 0.000112176
3 *18:2 0.000141621
4 *18:3 0.000243008
5 *18:4 0.00022018
6 *18:5 0.000369906
7 *18:6 0.000140071
8 *18:7 0.000175774
9 *18:8 0.000424027
10 *18:9 0.000591516
11 *18:10 0.000390708
12 *18:11 0.000613749
13 *18:12 0.00034833
14 *18:13 0.000589013
15 *18:14 0.000657678
16 *18:15 0.000475764
17 *18:16 0.000750423
18 *18:17 0.000742614
19 *18:18 0.000164866
20 *18:19 0.000537157
21 *18:19 *75:6 0.000597239
22 *18:19 *75:10 0.000921518
23 *18:19 *75:8 1.23978e-05
24 *18:18 *75:6 0.000461131
25 *18:17 *75:10 0.00119618
26 *18:17 *75:12 0.000913829
27 *18:7 *75:9 7.95722e-05
28 *18:7 *75:8 1.23978e-05
29 *18:6 *75:8 0.000735521
30 *18:5 *75:12 0.000598937
31 *18:5 *75:11 0.00046584
32 *18:3 *75:11 0.000295043
33 *18:3 *75:5 0.000124037
34 *18:2 *75:5 2.19941e-05
35 *18:19 *83:7 0.0005593
36 *18:19 *83:11 0.000462413
37 *18:18 *83:7 0.000462413
38 *18:17 *83:6 0.000844032
39 *18:17 *83:11 0.000872523
40 *18:17 *83:10 0.000493407
41 *18:8 *634:A2 1.01328e-05
42 *18:7 *634:A2 0.000115514
43 *18:6 *634:A2 1.90139e-05
44 *18:6 *83:9 0.00065881
45 *18:6 *83:7 1.90139e-05
46 *18:5 *83:10 0.000242889
47 *18:5 *83:13 0.000844032
48 *18:3 *83:6 0.000209808
49 *18:3 *83:13 8.47578e-05
50 *18:2 *83:13 5.78165e-06
51 *432:D *83:13 4.70877e-06
52 *18:16 *143:8 0.00101268
53 *18:9 *143:4 0.00101268
54 *18:16 *182:7 0.00130922
55 *18:9 *182:15 0.00130922
56 *18:13 *43:4 0.000434637
57 *18:8 *198:10 0.000502586

*RES
1 *18:19 *18:18 19.062
2 *18:17 *18:19 42.6007
3 *18:16 *18:15 11.5547
4 *18:14 *373:Z 9.40549
5 *18:13 *18:14 28.847
6 *18:12 *18:13 2.34067
7 *18:11 *18:12 18.0355
8 *18:15 *18:11 19.2972
9 *18:10 *18:9 0.255108
10 *18:9 *18:16 40.8767
11 *18:8 *18:10 26.1668
12 *18:7 *18:8 2.73895
13 *18:18 *18:6 0.153065
14 *18:6 *18:7 14.8878
15 *18:5 *18:17 42.6956
16 *18:4 *18:5 0.152946
17 *18:3 *18:4 12.1263
18 *18:2 *18:3 2.29573
19 *432:D *18:2 5.43964
*END

*D_NET *19 0.000527501

*CONN
*I *374:Z O *C 260.09 3.54 *L 0 *D DEL050D1BWP
*I *620:A1 I *C 258.69 2.56 *L 0.000464 *D OA211D0BWP
*I *619:A1 I *C 259.39 2.7 *L 0.000423 *D CKND2D0BWP

*CAP
1 *374:Z 5.35846e-05
2 *619:A1 4.82798e-06
3 *620:A1 9.95398e-05
4 *19:3 0.000159383
5 *19:4 0.000210166

*RES
1 *620:A1 *19:4 5.8912
2 *619:A1 *19:4 3.76916
3 *19:4 *19:3 9.35316
4 *19:3 *374:Z 4.65035
*END

*D_NET *20 0.000218511

*CONN
*I *375:Z O *C 131.71 5.5 *L 0 *D CKBD1BWP
*I *526:A2 I *C 131.15 5.36 *L 0.00046 *D NR2D0BWP

*CAP
1 *375:Z 6.75321e-05
2 *526:A2 4.17233e-05
3 *20:2 0.000109255

*RES
1 *526:A2 *20:2 4.55821
2 *20:2 *375:Z 5.33545
*END

*D_NET *21 0.00372577

*CONN
*I *376:Z O *C 201.43 3.54 *L 0 *D DEL100D1BWP
*I *472:D I *C 184.35 2.7 *L 0.000567 *D DFCNQD1BWP
*I *511:I I *C 201.43 2.7 *L 0.000464 *D INVD0BWP

*CAP
1 *376:Z 0.000106931
2 *511:I 5.66244e-05
3 *472:D 0.000132024
4 *21:3 0.000298917
5 *21:4 0.000334024
6 *21:5 0.000319362
7 *21:6 0.000443935
8 *21:7 0.00045526
9 *21:7 *347:14 0.000391364
10 *21:7 *173:3 0.000406265
11 *21:5 *49:75 0.000215173
12 *21:4 *49:73 0.000215173
13 *21:5 *90:9 0.000350714

*RES
1 *472:D *21:7 7.45583
2 *21:7 *21:6 14.2372
3 *21:6 *21:5 3.10647
4 *21:5 *21:4 11.0877
5 *21:4 *21:3 7.52139
6 *511:I *21:3 8.11291
7 *21:3 *376:Z 9.20331
*END

*D_NET *22 0.000378728

*CONN
*I *377:Z O *C 262.05 3.54 *L 0 *D DEL050D1BWP
*I *623:A1 I *C 261.35 2.7 *L 0.000412 *D AOI211D0BWP

*CAP
1 *377:Z 9.32813e-05
2 *623:A1 2.55704e-05
3 *22:2 0.000112772
4 *22:3 4.50611e-05
5 *623:A1 *623:B 0.000102043

*RES
1 *623:A1 *22:3 5.30505
2 *22:3 *22:2 3.91471
3 *22:2 *377:Z 9.35102
*END

*D_NET *23 0.000440478

*CONN
*I *378:Z O *C 267.37 3.54 *L 0 *D DEL050D1BWP
*I *602:A1 I *C 266.67 2.7 *L 0.000412 *D AOI211D0BWP

*CAP
1 *602:A1 0.000130415
2 *378:Z 5.52535e-05
3 *23:2 0.000164986
4 *23:3 8.98242e-05

*RES
1 *23:3 *378:Z 2.93183
2 *23:2 *23:3 2.20394
3 *602:A1 *23:2 7.52735
*END

*D_NET *24 0.000162244

*CONN
*I *379:Z O *C 280.39 3.54 *L 0 *D DEL050D1BWP
*I *605:A1 I *C 279.55 3.82 *L 0.000412 *D AOI211D0BWP

*CAP
1 *379:Z 1.51992e-05
2 *605:A1 6.59227e-05
3 *24:2 8.11219e-05

*RES
1 *605:A1 *24:2 3.17895
2 *24:2 *379:Z 2.05791
*END

*D_NET *25 0.000220299

*CONN
*I *380:Z O *C 276.33 3.54 *L 0 *D DEL050D1BWP
*I *603:A1 I *C 275.49 3.82 *L 0.000412 *D AOI211D0BWP

*CAP
1 *380:Z 2.22921e-05
2 *603:A1 8.78572e-05
3 *25:2 0.000110149

*RES
1 *603:A1 *25:2 3.27051
2 *25:2 *380:Z 2.05779
*END

*D_NET *26 9.54866e-05

*CONN
*I *381:Z O *C 22.37 2.98 *L 0 *D DEL050D1BWP
*I *505:A1 I *C 22.51 2.7 *L 0.00047 *D IND2D0BWP

*CAP
1 *381:Z 4.77433e-05
2 *505:A1 4.77433e-05

*RES
1 *505:A1 *381:Z 4.52125
*END

*D_NET *27 0.000789165

*CONN
*I *382:Z O *C 187.57 3.54 *L 0 *D DEL175D1BWP
*I *470:D I *C 185.05 5.22 *L 0.000567 *D DFCNQD1BWP

*CAP
1 *382:Z 7.56383e-05
2 *470:D 0.000104785
3 *27:2 0.000289798
4 *27:3 0.000318944

*RES
1 *470:D *27:3 4.17256
2 *27:3 *27:2 6.83188
3 *27:2 *382:Z 3.0582
*END

*D_NET *28 0.000544727

*CONN
*I *383:Z O *C 273.81 3.54 *L 0 *D DEL050D1BWP
*I *618:A1 I *C 272.27 2.7 *L 0.000412 *D AOI211D0BWP

*CAP
1 *383:Z 7.31349e-05
2 *618:A1 5.64456e-05
3 *28:2 0.000175476
4 *28:3 0.000158787
5 *28:3 *583:A2 8.08835e-05

*RES
1 *618:A1 *28:3 4.9262
2 *28:3 *28:2 5.94628
3 *28:2 *383:Z 2.93124
*END

*D_NET *29 0.00045085

*CONN
*I *384:Z O *C 176.37 5.5 *L 0 *D DEL125D1BWP
*I *467:D I *C 174.13 5.22 *L 0.000567 *D DFCNQD1BWP

*CAP
1 *384:Z 0.000107825
2 *467:D 9.2864e-05
3 *29:2 0.000132561
4 *29:3 0.0001176

*RES
1 *467:D *29:3 3.70824
2 *29:3 *29:2 0.529766
3 *29:2 *384:Z 5.81312
*END

*D_NET *30 0.00180519

*CONN
*I *385:Z O *C 94.47 3.54 *L 0 *D DEL125D1BWP
*I *453:D I *C 102.87 2.7 *L 0.000567 *D DFCNQD1BWP

*CAP
1 *453:D 0.000135243
2 *385:Z 6.96778e-05
3 *30:2 0.000410974
4 *30:3 0.000345409
5 *30:2 *260:15 0.000139236
6 *30:2 *339:9 0.000254512
7 *30:2 *39:4 0.000180364
8 *30:2 *130:4 6.19888e-06
9 *30:2 *130:3 7.70092e-05
10 *30:2 *189:4 0.000186563

*RES
1 *30:3 *385:Z 6.07824
2 *30:2 *30:3 12.5253
3 *453:D *30:2 7.80702
*END

*D_NET *31 0.000493884

*CONN
*I *386:Z O *C 179.17 5.5 *L 0 *D DEL125D1BWP
*I *471:D I *C 177.77 3.82 *L 0.000567 *D DFCNQD1BWP

*CAP
1 *386:Z 3.91603e-05
2 *471:D 9.197e-05
3 *31:2 0.000154972
4 *31:3 0.000207782

*RES
1 *471:D *31:3 5.36442
2 *31:3 *31:2 9.14812
3 *31:2 *386:Z 4.49395
*END

*D_NET *32 0.000198007

*CONN
*I *387:Z O *C 57.23 3.54 *L 0 *D DEL050D1BWP
*I *595:I I *C 56.39 3.82 *L 0.000464 *D INVD0BWP

*CAP
1 *387:Z 2.21133e-05
2 *595:I 7.689e-05
3 *32:2 9.90033e-05

*RES
1 *595:I *32:2 3.15249
2 *32:2 *387:Z 2.05767
*END

*D_NET *33 0.000877023

*CONN
*I *388:Z O *C 167.97 5.5 *L 0 *D DEL125D1BWP
*I *469:D I *C 164.61 5.22 *L 0.000567 *D DFCNQD1BWP

*CAP
1 *388:Z 4.70877e-05
2 *469:D 0.000245452
3 *33:2 0.00029254
4 *469:D *49:84 0.000291944

*RES
1 *469:D *33:2 13.8208
2 *33:2 *388:Z 3.78025
*END

*D_NET *34 0.000336766

*CONN
*I *389:I I *C 76.13 3.82 *L 0.000464 *D DEL125D1BWP
*I *451:Q O *C 75.99 5.5 *L 0 *D DFCNQD1BWP

*CAP
1 *451:Q 4.04716e-05
2 *389:I 0.000127912
3 *34:2 0.000168383

*RES
1 *389:I *34:2 9.62555
2 *34:2 *451:Q 7.9304
*END

*D_NET *35 0.000232458

*CONN
*I *390:Z O *C 104.97 5.5 *L 0 *D DEL125D1BWP
*I *452:D I *C 105.81 5.22 *L 0.000567 *D DFCNQD1BWP

*CAP
1 *390:Z 0.000116229
2 *452:D 0.000116229

*RES
1 *452:D *390:Z 9.59837
*END

*D_NET *36 0.00050509

*CONN
*I *391:Z O *C 9.77 3.54 *L 0 *D DEL125D1BWP
*I *475:D I *C 8.37 2.7 *L 0.000567 *D DFCNQD1BWP

*CAP
1 *391:Z 9.86457e-05
2 *475:D 0.000153899
3 *36:2 0.000252545

*RES
1 *475:D *36:2 7.46465
2 *36:2 *391:Z 3.74842
*END

*D_NET *37 0.000562549

*CONN
*I *392:Z O *C 169.37 3.54 *L 0 *D DEL100D1BWP
*I *473:D I *C 167.27 3.82 *L 0.000567 *D DFCNQD1BWP

*CAP
1 *392:Z 0.000112891
2 *473:D 0.000122607
3 *37:2 0.000235498
4 *37:2 *171:5 9.15527e-05

*RES
1 *473:D *37:2 7.0436
2 *37:2 *392:Z 4.76444
*END

*D_NET *38 0.00399303

*CONN
*I *393:Z O *C 193.59 3.54 *L 0 *D DEL050D1BWP
*I *468:D I *C 170.49 5.22 *L 0.000567 *D DFCNQD1BWP

*CAP
1 *393:Z 0.000215173
2 *468:D 0.000123441
3 *38:2 0.000476122
4 *38:3 0.000951648
5 *38:4 0.000797093
6 *38:5 0.000229836
7 *38:4 *174:5 0.000383258
8 *38:4 *214:5 0.000187039
9 *38:4 *171:3 0.000435591
10 *38:2 *348:5 0.000193834

*RES
1 *468:D *38:5 9.35006
2 *38:5 *38:4 6.5316
3 *38:4 *38:3 21.6303
4 *38:3 *38:2 6.10912
5 *38:2 *393:Z 11.3103
*END

*D_NET *39 0.00298893

*CONN
*I *394:Z O *C 86.21 2.98 *L 0 *D CKBD0BWP
*I *561:A2 I *C 98.95 3.82 *L 0.00118 *D NR2D2BWP
*I *559:A2 I *C 95.45 3.68 *L 0.00046 *D NR2D0BWP
*I *671:A1 I *C 90.55 5.22 *L 0.000492 *D NR3D0BWP

*CAP
1 *561:A2 2.39015e-05
2 *559:A2 1.03116e-05
3 *671:A1 4.67896e-05
4 *394:Z 0.000297546
5 *39:4 0.000132203
6 *39:5 0.000486195
7 *39:6 0.000148535
8 *39:7 0.000766873
9 *39:7 *339:10 0.000261188
10 *39:5 *315:8 0.000133276
11 *39:4 *558:A1 0.000264645
12 *39:4 *30:2 0.000180364
13 *561:A2 *314:10 0.000133276
14 *561:A2 *561:A1 0.000103831

*RES
1 *39:7 *394:Z 16.0738
2 *39:6 *39:7 5.55873
3 *671:A1 *39:6 4.79472
4 *39:5 *39:7 15.0939
5 *559:A2 *39:5 3.82638
6 *39:4 *39:5 5.74636
7 *561:A2 *39:4 7.21848
*END

*D_NET *40 0.0585953

*CONN
*I *504:CP I *C 21.81 5.22 *L 0.000463 *D DFCNQD1BWP
*I *395:Z O *C 155.09 3.68 *L 0 *D BUFFD20BWP
*I *503:CP I *C 40.71 2.7 *L 0.000463 *D DFCNQD1BWP
*I *502:CP I *C 68.15 5.22 *L 0.000463 *D DFCNQD1BWP
*I *501:CP I *C 96.01 2.7 *L 0.000463 *D DFCNQD1BWP
*I *500:CP I *C 131.85 5.22 *L 0.000463 *D DFCNQD1BWP
*I *499:CP I *C 144.59 5.22 *L 0.000463 *D DFCNQD1BWP
*I *498:CP I *C 173.57 2.7 *L 0.000463 *D DFCNQD1BWP
*I *497:CP I *C 237.97 2.7 *L 0.000463 *D DFCNQD1BWP
*I *496:CP I *C 249.73 5.22 *L 0.000463 *D DFCNQD1BWP
*I *495:CP I *C 35.39 2.7 *L 0.000463 *D DFCNQD1BWP
*I *494:CP I *C 59.33 5.22 *L 0.000463 *D DFCNQD1BWP
*I *493:CP I *C 91.95 5.22 *L 0.000463 *D DFCNQD1BWP
*I *492:CP I *C 127.37 2.7 *L 0.000463 *D DFCNQD1BWP
*I *491:CP I *C 143.33 2.7 *L 0.000463 *D DFCNQD1BWP
*I *490:CP I *C 163.35 2.7 *L 0.000463 *D DFCNQD1BWP
*I *489:CP I *C 236.85 5.22 *L 0.000463 *D DFCNQD1BWP
*I *488:CP I *C 245.95 5.22 *L 0.000463 *D DFCNQD1BWP
*I *487:CP I *C 34.97 5.22 *L 0.000463 *D DFCNQD1BWP
*I *486:CP I *C 39.59 5.22 *L 0.000463 *D DFCNQD1BWP
*I *485:CP I *C 48.83 2.7 *L 0.000463 *D DFCNQD1BWP
*I *484:CP I *C 89.43 2.7 *L 0.000463 *D DFCNQD1BWP
*I *483:CP I *C 126.67 2.7 *L 0.000463 *D DFCNQD1BWP
*I *482:CP I *C 139.27 3.82 *L 0.000463 *D DFCNQD1BWP
*I *481:CP I *C 184.21 3.82 *L 0.000463 *D DFCNQD1BWP
*I *480:CP I *C 208.15 3.82 *L 0.000463 *D DFCNQD1BWP
*I *479:CP I *C 242.17 2.7 *L 0.000463 *D DFCNQD1BWP
*I *478:CP I *C 242.03 5.22 *L 0.000463 *D DFCNQD1BWP
*I *477:CP I *C 25.73 5.22 *L 0.000463 *D DFCNQD1BWP
*I *476:CP I *C 30.07 5.22 *L 0.000463 *D DFCNQD1BWP
*I *475:CP I *C 9.07 2.7 *L 0.000463 *D DFCNQD1BWP
*I *474:CP I *C 126.25 5.22 *L 0.000463 *D DFCNQD1BWP
*I *473:CP I *C 167.97 3.82 *L 0.000463 *D DFCNQD1BWP
*I *472:CP I *C 185.05 2.7 *L 0.000463 *D DFCNQD1BWP
*I *471:CP I *C 178.47 3.82 *L 0.000463 *D DFCNQD1BWP
*I *470:CP I *C 185.75 5.22 *L 0.000463 *D DFCNQD1BWP
*I *469:CP I *C 165.31 5.22 *L 0.000463 *D DFCNQD1BWP
*I *468:CP I *C 171.19 5.22 *L 0.000463 *D DFCNQD1BWP
*I *467:CP I *C 174.83 5.22 *L 0.000463 *D DFCNQD1BWP
*I *466:CP I *C 189.53 5.22 *L 0.000463 *D DFCNQD1BWP
*I *465:CP I *C 196.95 2.7 *L 0.000463 *D DFCNQD1BWP
*I *464:CP I *C 189.25 2.7 *L 0.000463 *D DFCNQD1BWP
*I *463:CP I *C 198.35 5.22 *L 0.000463 *D DFCNQD1BWP
*I *462:CP I *C 237.41 2.7 *L 0.000463 *D DFCNQD1BWP
*I *461:CP I *C 235.87 5.22 *L 0.000463 *D DFCNQD1BWP
*I *460:CP I *C 231.11 5.22 *L 0.000463 *D DFCNQD1BWP
*I *459:CP I *C 225.09 2.7 *L 0.000463 *D DFCNQD1BWP
*I *458:CP I *C 223.97 2.7 *L 0.000463 *D DFCNQD1BWP
*I *457:CP I *C 216.69 2.7 *L 0.000463 *D DFCNQD1BWP
*I *456:CP I *C 207.59 2.7 *L 0.000463 *D DFCNQD1BWP
*I *455:CP I *C 212.63 3.82 *L 0.000463 *D DFCNQD1BWP
*I *454:CP I *C 74.45 2.7 *L 0.000463 *D DFCNQD1BWP
*I *453:CP I *C 102.17 2.7 *L 0.000463 *D DFCNQD1BWP
*I *452:CP I *C 105.11 5.22 *L 0.000463 *D DFCNQD1BWP
*I *451:CP I *C 72.91 5.22 *L 0.000463 *D DFCNQD1BWP
*I *450:CP I *C 89.99 2.7 *L 0.000463 *D DFCNQD1BWP
*I *449:CP I *C 101.47 3.82 *L 0.000463 *D DFCNQD1BWP
*I *448:CP I *C 68.15 2.7 *L 0.000463 *D DFCNQD1BWP
*I *447:CP I *C 78.23 2.7 *L 0.000463 *D DFCNQD1BWP
*I *446:CP I *C 82.57 2.7 *L 0.000463 *D DFCNQD1BWP
*I *445:CP I *C 253.23 2.7 *L 0.000463 *D DFCNQD1BWP
*I *444:CP I *C 260.09 5.22 *L 0.000463 *D DFCNQD1BWP
*I *443:CP I *C 256.31 5.22 *L 0.000463 *D DFCNQD1BWP
*I *442:CP I *C 272.97 3.82 *L 0.000463 *D DFCNQD1BWP
*I *441:CP I *C 286.13 5.22 *L 0.000463 *D DFCNQD1BWP
*I *440:CP I *C 280.11 5.22 *L 0.000463 *D DFCNQD1BWP
*I *439:CP I *C 285.85 2.7 *L 0.000463 *D DFCNQD1BWP
*I *438:CP I *C 274.23 2.7 *L 0.000463 *D DFCNQD1BWP
*I *437:CP I *C 263.03 2.7 *L 0.000463 *D DFCNQD1BWP
*I *436:CP I *C 265.97 5.22 *L 0.000463 *D DFCNQD1BWP
*I *435:CP I *C 50.09 5.22 *L 0.000463 *D DFCNQD1BWP
*I *434:CP I *C 59.47 2.7 *L 0.000463 *D DFCNQD1BWP
*I *433:CP I *C 131.01 2.7 *L 0.000463 *D DFCNQD1BWP
*I *432:CP I *C 203.53 5.22 *L 0.000463 *D DFCNQD1BWP
*I *431:CP I *C 14.81 5.22 *L 0.000463 *D DFCNQD1BWP
*I *430:CP I *C 5.15 3.82 *L 0.000463 *D DFCNQD1BWP
*I *429:CP I *C 17.89 2.7 *L 0.000463 *D DFCNQD1BWP

*CAP
1 *441:CP 7.689e-05
2 *439:CP 0.000170171
3 *440:CP 0.000110447
4 *438:CP 0.000169396
5 *442:CP 0.000146389
6 *436:CP 7.11679e-05
7 *437:CP 0.000170469
8 *444:CP 7.43866e-05
9 *443:CP 7.79033e-05
10 *445:CP 0.000181198
11 *496:CP 7.51615e-05
12 *488:CP 6.32405e-05
13 *479:CP 0.000195324
14 *478:CP 7.28369e-05
15 *497:CP 1.36495e-05
16 *462:CP 2.71201e-05
17 *489:CP 6.75321e-05
18 *461:CP 7.93338e-05
19 *460:CP 0.000103414
20 *459:CP 8.05855e-05
21 *458:CP 8.30889e-05
22 *457:CP 8.01682e-05
23 *455:CP 8.01086e-05
24 *480:CP 7.31349e-05
25 *456:CP 0.000114143
26 *432:CP 8.05855e-05
27 *463:CP 0.000171006
28 *465:CP 0.00013417
29 *466:CP 0.000126362
30 *464:CP 0.000124872
31 *470:CP 0.000147879
32 *472:CP 0.000104129
33 *481:CP 0.00010258
34 *471:CP 9.7692e-05
35 *467:CP 0.000141978
36 *498:CP 0.000107706
37 *468:CP 0.000141859
38 *473:CP 8.34465e-05
39 *469:CP 0.000119269
40 *490:CP 0.000109553
41 *395:Z 9.94802e-05
42 *499:CP 0.000131249
43 *491:CP 0.000115633
44 *482:CP 9.22084e-05
45 *500:CP 0.00012821
46 *433:CP 9.44138e-05
47 *492:CP 1.2219e-05
48 *483:CP 4.37498e-05
49 *474:CP 0.000132382
50 *452:CP 0.00017184
51 *453:CP 3.34978e-05
52 *449:CP 9.53674e-05
53 *501:CP 7.60555e-05
54 *493:CP 0.000225127
55 *450:CP 6.58631e-05
56 *484:CP 6.41346e-05
57 *446:CP 8.53538e-05
58 *447:CP 7.83801e-05
59 *454:CP 8.1718e-05
60 *451:CP 5.1558e-05
61 *448:CP 0.000208795
62 *502:CP 4.64916e-05
63 *434:CP 0.00020355
64 *494:CP 6.53863e-05
65 *435:CP 8.39829e-05
66 *485:CP 0.000170827
67 *503:CP 0.000169158
68 *486:CP 8.45194e-05
69 *495:CP 0.000185966
70 *487:CP 9.05395e-05
71 *476:CP 8.51154e-05
72 *477:CP 7.63535e-05
73 *504:CP 7.44462e-05
74 *429:CP 0.000192165
75 *431:CP 8.49962e-05
76 *475:CP 0.000118375
77 *430:CP 0.000191748
78 *40:77 0.000159204
79 *40:78 0.000191093
80 *40:79 0.000268519
81 *40:80 0.000142574
82 *40:81 0.000187159
83 *40:82 0.000177979
84 *40:83 0.000163615
85 *40:84 0.000264227
86 *40:85 0.00012666
87 *40:86 0.000189841
88 *40:87 0.000196695
89 *40:88 0.000218391
90 *40:89 0.000161409
91 *40:90 0.00019753
92 *40:91 0.000229418
93 *40:92 0.000194669
94 *40:93 7.12872e-05
95 *40:94 0.000209391
96 *40:95 0.000142276
97 *40:96 0.000272274
98 *40:97 0.000227034
99 *40:98 9.56058e-05
100 *40:99 0.000146866
101 *40:100 0.000448942
102 *40:101 0.000391185
103 *40:102 0.000325024
104 *40:103 0.000485182
105 *40:104 0.000293493
106 *40:105 0.000105619
107 *40:106 7.15852e-05
108 *40:107 0.000137925
109 *40:108 9.34005e-05
110 *40:109 0.000102043
111 *40:110 5.76973e-05
112 *40:111 0.000198007
113 *40:112 0.0001387
114 *40:113 0.000161767
115 *40:114 0.000128686
116 *40:115 0.000147045
117 *40:116 5.32866e-05
118 *40:117 0.000147104
119 *40:118 6.54459e-05
120 *40:119 0.000172436
121 *40:120 3.99351e-05
122 *40:121 0.000124097
123 *40:122 0.000186622
124 *40:123 0.000207424
125 *40:124 7.28965e-05
126 *40:125 0.000164509
127 *40:126 6.7234e-05
128 *40:127 0.000127375
129 *40:128 9.60827e-05
130 *40:129 0.000161111
131 *40:130 0.000171363
132 *40:131 0.000102818
133 *40:132 0.000139594
134 *40:133 0.00026077
135 *40:134 0.000127614
136 *40:135 0.000473738
137 *40:136 0.000150383
138 *40:137 0.00020504
139 *40:138 0.000134468
140 *40:139 0.000106275
141 *40:140 0.000299573
142 *40:141 0.00014776
143 *40:142 0.000168741
144 *40:143 0.000114083
145 *40:144 8.69632e-05
146 *40:145 0.000178993
147 *40:146 0.000189066
148 *40:147 0.000152588
149 *40:148 0.000508487
150 *40:149 0.000717044
151 *40:150 0.000285864
152 *40:151 0.000274539
153 *40:152 0.000272155
154 *40:153 0.000245988
155 *40:154 0.000131905
156 *40:155 0.00010848
157 *40:156 0.000220835
158 *40:157 0.000307024
159 *40:158 0.000227034
160 *40:159 0.000354409
161 *40:160 0.00035274
162 *40:161 0.000279546
163 *40:162 0.000223398
164 *40:163 0.000216782
165 *40:164 0.000108182
166 *40:165 0.000316858
167 *40:166 0.000380158
168 *40:167 0.000184894
169 *40:168 0.000321686
170 *40:169 0.000182927
171 *40:170 0.000316322
172 *40:171 0.000293076
173 *40:172 0.000201225
174 *40:173 0.000198185
175 *40:174 0.000293732
176 *40:175 0.000414491
177 *40:176 0.000314176
178 *40:177 0.000299752
179 *40:178 0.000210166
180 *40:179 0.000234842
181 *40:180 0.000415742
182 *40:181 0.000551701
183 *430:CP *139 7.30157e-05
184 *40:181 *139 5.99623e-05
185 *40:181 *139:3 2.20537e-06
186 *430:CP *137 0.000106513
187 *40:181 *137:3 0.000106513
188 *40:181 *45:5 0.000111699
189 *40:181 *45:4 4.41074e-05
190 *40:180 *45:4 9.62615e-05
191 *40:179 *45:4 0.000119448
192 *40:177 *45:4 0.000129342
193 *40:176 *45:4 1.19209e-05
194 *40:176 *45:2 0.000111938
195 *431:CP *131:76 2.94447e-05
196 *504:CP *131:72 4.17829e-05
197 *477:CP *131:71 2.0206e-05
198 *476:CP *131:70 1.9908e-05
199 *503:CP *131:66 4.23193e-05
200 *485:CP *131:64 2.0206e-05
201 *40:160 *131:59 0.000157535
202 *448:CP *131:60 1.82986e-05
203 *40:159 *131:59 0.000119328
204 *447:CP *131:57 4.1306e-05
205 *446:CP *131:56 1.90735e-05
206 *484:CP *131:54 4.24385e-05
207 *450:CP *131:54 4.23193e-05
208 *40:153 *131:53 3.57628e-07
209 *493:CP *131:53 1.91331e-05
210 *501:CP *131:52 4.17233e-05
211 *453:CP *131:50 2.28286e-05
212 *476:CP *476:D 2.02656e-06
213 *40:159 *161:9 0.000130594
214 *40:158 *161:9 8.18372e-05
215 *40:158 *161:7 8.76188e-06
216 *40:157 *161:7 8.46386e-06
217 *40:157 *161:5 0.000127196
218 *40:156 *161:5 2.34246e-05
219 *40:155 *161:5 9.81092e-05
220 *40:154 *161:5 0.000103921
221 *40:152 *161:5 0.0001553
222 *40:152 *161:4 0.000103921
223 *40:151 *161:4 0.0001553
224 *40:166 *599:A2 3.55244e-05
225 *40:166 *261:7 0.000148833
226 *40:165 *261:7 1.01328e-06
227 *40:164 *261:7 9.29534e-05
228 *40:164 *261:6 0.000168413
229 *40:162 *261:4 0.000239164
230 *40:162 *261:6 9.29534e-05
231 *40:166 *318:4 0.000153959
232 *40:165 *318:4 1.37091e-06
233 *40:164 *318:4 0.000205874
234 *40:162 *537:A2 0.000141025
235 *40:166 *205:3 9.13739e-05
236 *40:166 *205:2 3.49879e-05
237 *435:CP *435:D 5.96046e-07
238 *40:164 *319:9 9.33707e-05
239 *40:164 *319:6 0.000112057
240 *494:CP *319:10 5.42402e-06
241 *40:162 *319:8 0.000262618
242 *40:160 *319:6 0.000169247
243 *40:162 *502:D 8.89897e-05
244 *502:CP *502:D 1.37091e-06
245 *40:160 *186:2 9.74536e-05
246 *448:CP *502:D 3.51667e-06
247 *40:160 *81:4 2.83718e-05
248 *40:159 *81:4 6.71148e-05
249 *40:158 *81:4 7.77245e-05
250 *40:157 *81:5 2.26498e-06
251 *40:157 *81:4 2.77162e-05
252 *448:CP *311:16 1.91927e-05
253 *448:CP *311:15 3.27826e-06
254 *40:150 *311:9 1.38283e-05
255 *40:149 *311:18 0.00015375
256 *40:148 *311:9 0.00015375
257 *40:158 *454:Q 0.000128478
258 *40:157 *454:Q 0.000216305
259 *40:157 *339:10 0.000128478
260 *447:CP *339:10 4.1604e-05
261 *40:156 *339:10 0.000216305
262 *484:CP *339:10 4.40478e-05
263 *450:CP *339:10 4.32134e-05
264 *501:CP *339:9 1.90735e-05
265 *453:CP *339:8 2.55704e-05
266 *454:CP *251:13 5.60284e-06
267 *449:CP *251:14 4.52995e-05
268 *40:150 *251:7 8.70228e-05
269 *40:149 *251:14 8.70228e-05
270 *40:157 *484:D 3.86238e-05
271 *40:156 *484:D 6.4373e-06
272 *40:156 *172:15 1.01924e-05
273 *484:CP *484:D 6.97374e-06
274 *40:155 *172:15 6.1512e-05
275 *40:154 *172:15 0.000129342
276 *40:152 *172:15 9.39965e-05
277 *40:152 *172:14 4.94719e-06
278 *40:151 *172:14 9.39965e-05
279 *483:CP *172:10 1.49608e-05
280 *40:145 *172:10 9.53674e-07
281 *433:CP *172:9 4.1306e-05
282 *491:CP *172:7 4.11868e-05
283 *490:CP *172:4 4.09484e-05
284 *498:CP *172:3 4.17829e-05
285 *449:CP *104:4 2.12789e-05
286 *40:150 *104:4 0.00015229
287 *40:149 *104:8 0.000234246
288 *40:149 *104:9 0.000252962
289 *40:148 *104:10 0.000268459
290 *40:148 *104:2 2.84314e-05
291 *40:148 *104:4 0.000234246
292 *40:146 *104:10 9.42946e-05
293 *40:144 *104:2 0.000132143
294 *40:142 *104:10 0.000191629
295 *40:140 *104:10 0.000102192
296 *40:140 *104:2 0.000191629
297 *40:139 *104:2 0.000164121
298 *40:137 *104:3 4.23193e-06
299 *40:137 *104:10 0.00026539
300 *40:135 *104:2 0.00026539
301 *40:149 *636:B2 4.23193e-06
302 *40:149 *84:13 0.000226051
303 *40:148 *84:13 5.53727e-05
304 *40:148 *84:15 0.000226051
305 *40:146 *84:13 9.47416e-05
306 *40:144 *84:13 3.74913e-05
307 *40:144 *84:15 9.47416e-05
308 *40:142 *84:13 0.000182271
309 *40:140 *84:13 0.000108987
310 *40:140 *84:15 0.000182271
311 *40:139 *84:13 6.13332e-05
312 *40:139 *84:15 0.000108987
313 *40:137 *84:13 3.79086e-05
314 *40:137 *84:15 0.00012511
315 *40:137 *84:14 0.000151634
316 *40:137 *84:12 9.05096e-05
317 *40:135 *84:12 0.000306726
318 *40:135 *84:11 9.05096e-05
319 *40:133 *84:11 0.000217915
320 *40:131 *84:11 2.06828e-05
321 *40:131 *84:10 6.11544e-05
322 *40:130 *84:10 0.000220448
323 *40:128 *84:9 8.49664e-05
324 *40:126 *84:10 0.000121534
325 *40:124 *84:10 2.13385e-05
326 *40:124 *84:9 8.52346e-06
327 *40:123 *84:8 0.000268906
328 *40:123 *84:9 8.10623e-06
329 *40:122 *84:7 0.000150293
330 *40:120 *84:8 4.1008e-05
331 *40:118 *84:8 3.05176e-05
332 *40:116 *84:8 1.44243e-05
333 *40:116 *84:7 8.40425e-06
334 *40:114 *84:6 0.000100583
335 *40:112 *84:7 8.70228e-06
336 *40:112 *84:5 0.000100583
337 *40:108 *84:6 6.16312e-05
338 *40:108 *84:4 8.34465e-06
339 *40:149 *407:I 0.000119686
340 *40:148 *52:2 0.000119686
341 *40:143 *433:D 7.51019e-06
342 *433:CP *433:D 0.000101626
343 *500:CP *433:D 3.57628e-06
344 *500:CP *375:I 4.3571e-05
345 *40:137 *330:8 2.68221e-06
346 *40:135 *330:14 0.000100076
347 *40:133 *330:8 0.000100076
348 *456:CP *330:3 3.016e-05
349 *457:CP *579:I 6.55651e-07
350 *482:CP *197:3 1.90139e-05
351 *40:135 *197:2 4.36306e-05
352 *473:CP *197:2 4.12464e-05
353 *499:CP *49:93 4.51207e-05
354 *469:CP *49:86 5.66244e-05
355 *469:CP *49:84 2.97427e-05
356 *40:132 *473:CDN 7.45058e-06
357 *468:CP *49:83 4.57168e-05
358 *467:CP *49:82 1.3113e-05
359 *40:124 *49:82 0.000169456
360 *40:123 *49:82 0.00025773
361 *40:123 *49:81 0.000110805
362 *40:122 *49:81 0.000139177
363 *472:CP *49:78 4.27961e-05
364 *480:CP *49:69 2.29478e-05
365 *455:CP *49:68 9.29832e-06
366 *40:102 *49:65 5.94258e-05
367 *461:CP *49:59 1.94907e-05
368 *489:CP *49:59 1.78218e-05
369 *488:CP *49:55 2.49147e-05
370 *496:CP *49:54 2.24113e-05
371 *443:CP *49:53 4.25577e-05
372 *444:CP *49:50 4.11868e-05
373 *40:86 *49:48 4.17233e-07
374 *437:CP *49:48 1.39475e-05
375 *436:CP *49:47 2.25902e-05
376 *442:CP *49:44 1.3113e-06
377 *40:133 *91:8 5.60284e-05
378 *40:133 *91:9 1.15037e-05
379 *40:131 *91:8 9.51886e-05
380 *40:130 *91:8 0.000219434
381 *40:128 *91:7 8.4132e-05
382 *40:126 *91:8 0.000121057
383 *40:124 *91:8 5.99027e-05
384 *40:123 *91:8 4.52995e-05
385 *40:123 *91:7 5.72205e-06
386 *40:122 *91:7 0.000130594
387 *40:120 *91:7 3.97563e-05
388 *40:118 *91:6 0.000160336
389 *40:118 *91:7 2.74181e-06
390 *40:116 *91:5 0.000119925
391 *40:114 *91:5 0.000142276
392 *40:114 *91:6 9.23872e-06
393 *40:112 *91:11 0.000139594
394 *40:108 *91:5 8.62777e-05
395 *40:106 *91:11 8.62777e-05
396 *40:105 *91:5 0.000142574
397 *40:104 *91:11 0.000119269
398 *40:103 *91:5 2.96831e-05
399 *445:CP *91:3 1.06692e-05
400 *498:CP *71:6 2.93255e-05
401 *472:CP *71:4 1.84178e-05
402 *464:CP *71:4 4.25577e-05
403 *464:CP *71:3 2.26498e-06
404 *456:CP *426:I 2.04444e-05
405 *471:CP *41:11 9.83477e-06
406 *40:103 *41:6 8.92878e-05
407 *40:103 *41:5 6.97374e-06
408 *40:103 *41:4 9.19104e-05
409 *40:102 *41:4 8.92878e-05
410 *40:102 *41:3 6.07967e-06
411 *488:CP *488:D 1.94907e-05
412 *470:CP *382:I 1.90735e-06
413 *40:119 *382:I 2.98023e-07
414 *40:118 *348:7 0.000149548
415 *40:116 *348:6 0.000149548
416 *40:114 *348:7 8.41618e-05
417 *40:114 *348:6 1.75238e-05
418 *40:112 *348:6 8.41618e-05
419 *466:CP *466:D 4.18425e-05
420 *40:109 *15:5 8.22544e-06
421 *432:CP *15:5 0.000161171
422 *40:114 *176:3 9.47416e-05
423 *40:112 *176:3 8.40425e-06
424 *40:112 *176:2 9.47416e-05
425 *40:110 *176:3 0.000253171
426 *40:110 *176:2 0.000127792
427 *40:108 *176:2 0.000253171
428 *40:106 *176:2 4.86374e-05
429 *40:106 *480:D 8.52346e-06
430 *480:CP *480:D 4.47035e-05
431 *40:112 *519:B2 0.000157714
432 *40:110 *519:B2 0.000302851
433 *40:108 *228:12 0.000175059
434 *455:CP *228:10 5.48363e-06
435 *40:111 *593:A1 1.60933e-06
436 *40:102 *256:7 1.97291e-05
437 *40:101 *256:7 0.000107288
438 *40:100 *256:7 0.000118911
439 *40:109 *210:8 8.10623e-06
440 *40:108 *210:7 0.000211179
441 *40:108 *210:8 8.46386e-06
442 *432:CP *210:8 1.77622e-05
443 *40:106 *210:6 0.00020045
444 *40:105 *210:7 0.000274479
445 *40:104 *210:6 0.000227869
446 *40:103 *210:7 5.78761e-05
447 *40:104 *100:4 9.06587e-05
448 *40:103 *100:3 9.06587e-05
449 *40:102 *100:4 4.91142e-05
450 *40:102 *100:3 1.13845e-05
451 *457:CP *240:9 1.75834e-05
452 *458:CP *240:9 4.34518e-05
453 *459:CP *240:9 4.19021e-05
454 *462:CP *240:8 5.0962e-05
455 *40:97 *240:8 6.97374e-06
456 *479:CP *240:8 7.45058e-06
457 *445:CP *240:8 1.96099e-05
458 *40:101 *250:10 0.000247628
459 *40:100 *250:10 0.000132143
460 *40:100 *250:9 0.000247628
461 *40:99 *250:9 0.000132143
462 *40:99 *250:8 0.000109255
463 *40:98 *250:8 4.48823e-05
464 *40:96 *250:8 0.000159264
465 *40:95 *250:7 0.000104427
466 *40:93 *250:8 1.90735e-06
467 *40:92 *250:8 7.27773e-05
468 *40:92 *250:7 0.000109732
469 *40:101 *42:4 0.000131011
470 *40:100 *42:4 0.000116795
471 *40:100 *42:3 0.000131011
472 *461:CP *42:2 8.52346e-06
473 *40:99 *42:3 0.000116795
474 *40:99 *42:2 3.0458e-05
475 *40:98 *42:2 8.55327e-05
476 *489:CP *42:2 4.73261e-05
477 *489:CP *489:D 2.33054e-05
478 *40:98 *98:14 5.36442e-07
479 *40:96 *98:14 2.08616e-06
480 *40:96 *98:10 3.19481e-05
481 *40:95 *98:10 0.000133991
482 *40:93 *98:10 1.43051e-06
483 *40:92 *98:10 0.000127494
484 *40:91 *98:10 0.000122607
485 *40:89 *98:10 0.00011003
486 *40:88 *98:10 9.78112e-05
487 *40:87 *98:10 2.21729e-05
488 *40:87 *98:8 4.64916e-06
489 *40:82 *98:8 3.75509e-06
490 *40:82 *98:7 0.000125766
491 *40:80 *98:7 3.68357e-05
492 *40:79 *98:7 1.40667e-05
493 *40:79 *98:6 3.99351e-06
494 *40:77 *98:6 4.11272e-06
495 *40:77 *98:4 0.000105381
496 *441:CP *98:4 9.83477e-06
497 *40:92 *74:8 2.8491e-05
498 *40:91 *74:8 8.47578e-05
499 *40:89 *74:8 7.62343e-05
500 *40:88 *74:7 2.6226e-06
501 *496:CP *73:7 8.9407e-06
502 *444:CP *73:6 8.34465e-07
503 *444:CP *73:5 2.85506e-05
504 *436:CP *73:4 4.26769e-05
505 *40:80 *73:3 0.000107169
506 *438:CP *73:3 1.78814e-07
507 *40:79 *73:3 0.0003483
508 *40:79 *73:2 0.000107169
509 *40:77 *73:2 0.00025484
510 *441:CP *73:2 2.99811e-05
511 *441:CP *428:I 4.29153e-06
512 *445:CP *65:5 1.5676e-05
513 *40:88 *65:5 0.000117838
514 *40:88 *65:4 5.48363e-06
515 *40:87 *65:4 0.0001176
516 *40:85 *65:4 9.2566e-05
517 *40:84 *65:4 8.69036e-05
518 *40:82 *65:4 0.000130653
519 *40:82 *65:3 0.000120819
520 *40:80 *65:3 3.32594e-05
521 *40:79 *65:3 1.71661e-05
522 *40:79 *65:2 3.63588e-06
523 *439:CP *420:I 5.36442e-07
524 *40:87 *585:A4 1.85966e-05
525 *40:87 *232:4 0.000130534
526 *40:85 *232:4 0.000154912
527 *40:84 *232:4 0.000149429
528 *40:82 *232:4 0.000145376
529 *40:82 *232:3 1.04904e-05
530 *437:CP *621:I 9.36389e-05
531 *437:CP *321:5 6.25849e-06
532 *442:CP *584:A4 1.49012e-06
533 *40:83 *584:A4 3.57628e-07
534 *40:81 *584:A4 2.98023e-06
535 *438:CP *584:A4 9.7692e-05
536 *40:81 *324:6 4.76837e-07
537 *40:80 *324:5 0.000156015
538 *438:CP *324:6 1.01328e-06
539 *40:79 *324:6 8.58307e-06
540 *40:79 *324:4 0.000156015
541 *40:77 *324:5 0.000164211
542 *40:77 *324:4 8.40425e-06

*RES
1 *430:CP *40:181 21.9203
2 *475:CP *40:181 9.55486
3 *40:181 *40:180 14.7126
4 *40:180 *40:179 4.30012
5 *431:CP *40:180 12.4199
6 *40:178 *40:179 3.91483
7 *40:179 *40:177 5.52464
8 *429:CP *40:178 11.5898
9 *504:CP *40:177 12.6827
10 *40:177 *40:176 5.52464
11 *477:CP *40:176 12.4065
12 *40:176 *40:175 6.91617
13 *476:CP *40:175 12.6829
14 *40:175 *40:174 6.95717
15 *487:CP *40:174 12.6833
16 *40:174 *40:173 0.422955
17 *495:CP *40:172 11.5912
18 *40:172 *40:173 3.91519
19 *40:173 *40:171 5.93626
20 *486:CP *40:171 12.4068
21 *40:171 *40:170 1.44398
22 *503:CP *40:169 11.8675
23 *40:169 *40:170 3.91495
24 *40:170 *40:168 11.6538
25 *485:CP *40:167 11.5919
26 *40:167 *40:168 3.91507
27 *40:168 *40:166 1.64819
28 *40:166 *40:165 15.0222
29 *435:CP *40:166 12.4069
30 *40:165 *40:164 0.0145435
31 *494:CP *40:165 12.687
32 *434:CP *40:163 12.0499
33 *40:163 *40:164 3.96693
34 *40:164 *40:162 17.9883
35 *502:CP *40:161 8.11338
36 *40:161 *40:162 3.99768
37 *40:162 *40:160 12.9048
38 *448:CP *40:161 11.5941
39 *40:160 *40:159 10.3034
40 *451:CP *40:160 8.11982
41 *40:159 *40:158 6.11353
42 *454:CP *40:159 12.4538
43 *40:158 *40:157 7.93695
44 *447:CP *40:158 13.2321
45 *40:157 *40:156 12.8218
46 *446:CP *40:157 12.4531
47 *484:CP *40:156 12.9588
48 *40:156 *40:155 0.625491
49 *40:155 *40:154 2.6629
50 *450:CP *40:155 12.9589
51 *40:153 *40:154 3.91483
52 *40:154 *40:152 5.71871
53 *493:CP *40:153 11.6645
54 *40:152 *40:151 12.3243
55 *501:CP *40:152 12.6823
56 *449:CP *40:150 13.0975
57 *40:151 *40:150 6.13785
58 *40:150 *40:149 5.49948
59 *453:CP *40:151 8.12912
60 *40:149 *40:148 32.5708
61 *452:CP *40:149 13.7852
62 *474:CP *40:147 9.75883
63 *40:147 *40:148 3.91757
64 *40:148 *40:146 1.43898
65 *483:CP *40:145 4.64988
66 *40:145 *40:146 9.41277
67 *40:146 *40:144 5.10168
68 *492:CP *40:145 3.82042
69 *40:143 *40:144 3.96025
70 *40:144 *40:142 1.03199
71 *433:CP *40:143 10.5687
72 *40:141 *40:142 3.91471
73 *40:142 *40:140 10.5971
74 *500:CP *40:141 10.0344
75 *40:140 *40:139 5.7596
76 *482:CP *40:140 12.6822
77 *40:138 *40:139 3.91471
78 *40:139 *40:137 1.64247
79 *491:CP *40:138 9.83012
80 *40:136 *40:137 3.91471
81 *40:137 *40:135 15.2082
82 *499:CP *40:136 10.3101
83 *40:135 *395:Z 11.1666
84 *40:134 *40:133 3.91483
85 *40:133 *40:135 11.8308
86 *490:CP *40:134 9.83036
87 *469:CP *40:132 10.0349
88 *40:132 *40:131 3.96013
89 *40:131 *40:133 2.66087
90 *473:CP *40:130 12.6827
91 *40:130 *40:131 3.67725
92 *468:CP *40:129 10.3101
93 *40:129 *40:128 3.91471
94 *40:128 *40:130 4.49121
95 *40:127 *40:126 3.91471
96 *40:126 *40:128 3.27039
97 *498:CP *40:127 9.84311
98 *467:CP *40:125 10.0341
99 *40:125 *40:124 3.96156
100 *40:124 *40:126 2.04635
101 *471:CP *40:123 12.6395
102 *40:123 *40:124 6.70755
103 *481:CP *40:122 12.682
104 *40:122 *40:123 8.97574
105 *472:CP *40:121 9.82988
106 *40:121 *40:120 3.91495
107 *40:120 *40:122 1.03199
108 *470:CP *40:119 10.0328
109 *40:119 *40:118 3.96252
110 *40:118 *40:120 0.846505
111 *464:CP *40:117 10.3081
112 *40:117 *40:116 3.96395
113 *40:116 *40:118 7.09701
114 *466:CP *40:115 10.0343
115 *40:115 *40:114 3.96168
116 *40:114 *40:116 0.329971
117 *465:CP *40:113 9.65214
118 *40:113 *40:112 4.05395
119 *40:112 *40:114 14.3821
120 *40:111 *40:110 4.05395
121 *40:110 *40:112 3.67725
122 *463:CP *40:111 10.838
123 *40:109 *40:108 4.09949
124 *40:108 *40:110 13.6057
125 *432:CP *40:109 10.9692
126 *456:CP *40:107 9.56714
127 *40:107 *40:106 3.96144
128 *40:106 *40:108 8.94952
129 *40:105 *40:106 0.935078
130 *480:CP *40:105 12.7859
131 *40:104 *40:105 9.45902
132 *455:CP *40:104 12.4536
133 *40:103 *40:104 15.3962
134 *457:CP *40:103 12.4068
135 *458:CP *40:102 12.7293
136 *40:102 *40:103 10.5177
137 *40:101 *40:102 2.1553
138 *459:CP *40:101 12.73
139 *460:CP *40:100 12.5442
140 *40:100 *40:101 23.9757
141 *461:CP *40:99 12.453
142 *40:99 *40:100 8.80611
143 *40:98 *40:99 1.84107
144 *489:CP *40:98 12.8715
145 *462:CP *40:97 4.78613
146 *40:97 *40:96 11.3537
147 *40:96 *40:98 1.44053
148 *497:CP *40:97 3.86608
149 *40:95 *40:96 5.71871
150 *478:CP *40:95 12.686
151 *40:94 *40:93 3.96681
152 *40:93 *40:95 0.0145435
153 *479:CP *40:94 11.7729
154 *40:92 *40:93 6.08981
155 *488:CP *40:92 12.4631
156 *40:91 *40:92 5.31077
157 *496:CP *40:91 12.463
158 *40:90 *40:89 3.91483
159 *40:89 *40:91 4.90344
160 *445:CP *40:90 11.5914
161 *40:88 *40:89 4.39656
162 *443:CP *40:88 12.7568
163 *40:87 *40:88 5.31232
164 *444:CP *40:87 12.8525
165 *40:86 *40:85 3.91471
166 *40:85 *40:87 4.089
167 *437:CP *40:86 12.3576
168 *40:84 *40:85 4.089
169 *436:CP *40:84 12.7394
170 *442:CP *40:83 10.1253
171 *40:83 *40:82 3.91483
172 *40:82 *40:84 10.0003
173 *40:81 *40:80 3.91483
174 *40:80 *40:82 1.64616
175 *438:CP *40:81 11.868
176 *440:CP *40:79 12.9585
177 *40:79 *40:80 9.71448
178 *439:CP *40:78 11.5942
179 *40:78 *40:77 3.95143
180 *40:77 *40:79 11.556
181 *441:CP *40:77 12.8583
*END

*D_NET *41 0.0115011

*CONN
*I *488:D I *C 246.65 5.22 *L 0.000567 *D DFCNQD1BWP
*I *396:Z O *C 171.61 3.54 *L 0 *D CKBD1BWP

*CAP
1 *488:D 0.000206232
2 *396:Z 8.9705e-05
3 *41:2 0.000675499
4 *41:3 0.000597298
5 *41:4 0.000283599
6 *41:5 0.000230372
7 *41:6 0.000162542
8 *41:7 0.000191987
9 *41:8 0.000230789
10 *41:9 0.00025481
11 *41:10 0.000795901
12 *41:11 0.00107014
13 *41:12 0.00043416
14 *41:11 *471:CP 9.83477e-06
15 *41:6 *40:103 8.92878e-05
16 *41:5 *40:103 6.97374e-06
17 *41:4 *40:103 9.19104e-05
18 *41:4 *40:102 8.92878e-05
19 *41:3 *40:102 6.07967e-06
20 *488:D *488:CP 1.94907e-05
21 *41:11 *354:4 0.000233769
22 *41:11 *352:4 0.000551343
23 *41:9 *91:5 0.0014208
24 *41:7 *91:11 0.0014208
25 *41:7 *71:2 0.00119424
26 *41:5 *76:11 0.000378728
27 *41:4 *49:66 0.000258744
28 *41:3 *49:65 0.000258744
29 *41:2 *613:B 0.00011909
30 *41:2 *75:4 0.000128925

*RES
1 *41:12 *396:Z 7.17437
2 *41:11 *41:12 12.8611
3 *41:10 *41:11 17.1551
4 *41:9 *41:10 10.5282
5 *41:8 *41:7 0.153184
6 *41:7 *41:9 17.7776
7 *41:6 *41:5 0.255227
8 *41:5 *41:8 16.2433
9 *41:4 *41:6 12.1294
10 *41:3 *41:4 9.91881
11 *41:2 *41:3 25.6051
12 *488:D *41:2 10.1862
*END

*D_NET *42 0.0164433

*CONN
*I *489:D I *C 237.55 5.22 *L 0.000567 *D DFCNQD1BWP
*I *397:Z O *C 129.89 5.5 *L 0 *D CKBD1BWP

*CAP
1 *489:D 5.23925e-05
2 *397:Z 0.00053221
3 *42:2 0.000135183
4 *42:3 0.000227571
5 *42:4 0.000323474
6 *42:5 0.000189602
7 *42:6 0.000163913
8 *42:7 0.000269055
9 *42:8 0.000160158
10 *42:9 0.000268877
11 *42:10 0.0003106
12 *42:11 0.000138879
13 *42:12 0.000311136
14 *42:13 0.000192881
15 *42:14 0.000176668
16 *42:15 0.00023967
17 *42:16 0.000426412
18 *42:17 0.000834107
19 *42:17 *82:7 0.000491977
20 *42:16 *82:6 0.000491977
21 *42:17 *250:23 0.000343204
22 *42:14 *250:20 0.000199318
23 *42:14 *250:19 5.32866e-05
24 *42:13 *250:19 0.000142038
25 *42:12 *250:16 0.000515252
26 *42:11 *250:18 3.8743e-06
27 *42:10 *250:15 0.000515252
28 *42:7 *250:15 6.07967e-06
29 *42:7 *250:14 7.39098e-06
30 *42:6 *250:12 0.000503063
31 *42:4 *250:11 0.000291765
32 *42:4 *250:10 6.67572e-05
33 *42:3 *250:10 5.78165e-06
34 *42:17 *215:4 0.000542283
35 *42:16 *49:90 0.000210762
36 *42:16 *499:D 0.000407338
37 *42:14 *355:7 0.0002352
38 *42:14 *96:3 0.000135183
39 *42:14 *305:2 0.000436306
40 *42:14 *669:A1 8.4281e-05
41 *42:11 *180:7 0.000589728
42 *42:9 *98:12 0.00169283
43 *42:7 *98:14 0.00169283
44 *42:7 *15:7 0.000772357
45 *42:7 *222:5 0.000239909
46 *42:4 *40:101 0.000131011
47 *42:4 *40:100 0.000116795
48 *42:3 *40:100 0.000131011
49 *42:3 *40:99 0.000116795
50 *42:2 *461:CP 8.52346e-06
51 *42:2 *40:99 3.0458e-05
52 *42:2 *40:98 8.55327e-05
53 *42:2 *489:CP 4.73261e-05
54 *489:D *489:CP 2.33054e-05
55 *42:4 *513:A4 0.000123739

*RES
1 *42:17 *397:Z 33.2847
2 *42:16 *42:17 13.062
3 *42:15 *42:16 10.0378
4 *42:14 *42:15 15.1494
5 *42:13 *42:14 4.92191
6 *42:12 *42:11 0.255227
7 *42:11 *42:13 15.0572
8 *42:10 *42:12 28.0117
9 *42:9 *42:10 0.255227
10 *42:8 *42:7 0.255227
11 *42:7 *42:9 26.0984
12 *42:6 *42:8 13.7513
13 *42:5 *42:6 0.255227
14 *42:4 *42:5 13.5051
15 *42:3 *42:4 14.2436
16 *42:2 *42:3 7.18224
17 *489:D *42:2 3.23343
*END

*D_NET *43 0.00387299

*CONN
*I *486:Q O *C 36.51 5.5 *L 0 *D DFCNQD1BWP
*I *398:I I *C 9.77 5.22 *L 0.0017 *D CKBD8BWP

*CAP
1 *486:Q 7.37906e-05
2 *398:I 4.95315e-05
3 *43:2 0.000257075
4 *43:3 0.000456333
5 *43:4 0.000285268
6 *43:5 0.000449598
7 *43:6 0.000636041
8 *43:7 0.000248194
9 *398:I *45:5 0.000155687
10 *43:4 *131:71 0.000413418
11 *43:3 *131:70 0.000413418
12 *43:4 *18:13 0.000434637

*RES
1 *398:I *43:7 4.33898
2 *43:7 *43:6 9.86362
3 *43:6 *43:5 13.4369
4 *43:5 *43:4 0.255108
5 *43:4 *43:3 14.4554
6 *43:3 *43:2 4.73952
7 *43:2 *486:Q 3.48401
*END

*D_NET *44 0.00230408

*CONN
*I *487:Q O *C 31.89 5.5 *L 0 *D DFCNQD1BWP
*I *399:I I *C 13.69 3.82 *L 0.0017 *D CKBD8BWP

*CAP
1 *487:Q 0.000168383
2 *399:I 1.41263e-05
3 *44:2 0.000307858
4 *44:3 0.000917733
5 *44:4 0.000792384
6 *44:4 *46:3 0.000103593

*RES
1 *399:I *44:4 2.05779
2 *44:4 *44:3 22.8598
3 *44:3 *44:2 6.11734
4 *44:2 *487:Q 5.44691
*END

*D_NET *45 0.00308758

*CONN
*I *476:Q O *C 26.99 5.5 *L 0 *D DFCNQD1BWP
*I *400:I I *C 4.73 5.22 *L 0.0017 *D CKBD8BWP

*CAP
1 *476:Q 0.000118136
2 *400:I 0.000139296
3 *45:2 0.000129879
4 *45:3 0.000397384
5 *45:4 0.000764251
6 *45:5 0.000517905
7 *400:I *140:3 0.000137448
8 *45:5 *40:181 0.000111699
9 *45:4 *40:181 4.41074e-05
10 *45:4 *40:180 9.62615e-05
11 *45:4 *40:179 0.000119448
12 *45:4 *40:177 0.000129342
13 *45:4 *40:176 1.19209e-05
14 *45:2 *40:176 0.000111938
15 *45:5 *131:77 0.000102878
16 *45:5 *398:I 0.000155687

*RES
1 *400:I *45:5 5.88715
2 *45:5 *45:4 16.0838
3 *45:4 *45:3 18.5708
4 *45:3 *45:2 0.459433
5 *45:2 *476:Q 8.85046
*END

*D_NET *46 0.00193167

*CONN
*I *477:Q O *C 22.65 5.5 *L 0 *D DFCNQD1BWP
*I *401:I I *C 12.43 2.7 *L 0.0017 *D CKBD8BWP

*CAP
1 *477:Q 2.3365e-05
2 *401:I 0.000150919
3 *46:2 0.000714362
4 *46:3 0.000841916
5 *46:3 *131:72 9.75132e-05
6 *46:3 *44:4 0.000103593

*RES
1 *401:I *46:3 6.90877
2 *46:3 *46:2 17.4474
3 *46:2 *477:Q 4.43769
*END

*D_NET *47 0.000184298

*CONN
*I *475:Q O *C 5.99 2.98 *L 0 *D DFCNQD1BWP
*I *402:I I *C 5.15 2.7 *L 0.0017 *D CKBD8BWP

*CAP
1 *475:Q 1.7345e-05
2 *402:I 7.48038e-05
3 *47:2 9.21488e-05

*RES
1 *402:I *47:2 3.13652
2 *47:2 *475:Q 2.05803
*END

*D_NET *48 0.00139141

*CONN
*I *381:I I *C 22.09 2.42 *L 0.000884 *D DEL050D1BWP
*I *504:Q O *C 18.73 5.5 *L 0 *D DFCNQD1BWP
*I *403:I I *C 16.77 2.7 *L 0.0017 *D CKBD8BWP

*CAP
1 *381:I 8.41022e-05
2 *504:Q 0.000177801
3 *403:I 0.000218809
4 *48:3 0.000266969
5 *48:4 0.000209928
6 *48:5 0.000433803

*RES
1 *403:I *48:5 9.26805
2 *48:5 *48:4 2.18165
3 *48:4 *504:Q 9.64475
4 *48:3 *48:5 3.98421
5 *381:I *48:3 3.32999
*END

*D_NET *49 0.0362391

*CONN
*I *499:CDN I *C 147.11 5.36 *L 0.0012 *D DFCNQD1BWP
*I *491:CDN I *C 145.85 2.84 *L 0.0012 *D DFCNQD1BWP
*I *469:CDN I *C 162.79 5.36 *L 0.0012 *D DFCNQD1BWP
*I *468:CDN I *C 168.67 5.36 *L 0.0012 *D DFCNQD1BWP
*I *473:CDN I *C 165.45 3.68 *L 0.0012 *D DFCNQD1BWP
*I *490:CDN I *C 165.87 2.84 *L 0.0012 *D DFCNQD1BWP
*I *471:CDN I *C 175.95 3.68 *L 0.0012 *D DFCNQD1BWP
*I *467:CDN I *C 172.31 5.36 *L 0.0012 *D DFCNQD1BWP
*I *472:CDN I *C 182.53 2.84 *L 0.0012 *D DFCNQD1BWP
*I *470:CDN I *C 183.23 5.36 *L 0.0012 *D DFCNQD1BWP
*I *498:CDN I *C 176.09 2.84 *L 0.0012 *D DFCNQD1BWP
*I *466:CDN I *C 187.01 5.36 *L 0.0012 *D DFCNQD1BWP
*I *481:CDN I *C 181.69 3.68 *L 0.0012 *D DFCNQD1BWP
*I *464:CDN I *C 186.73 2.84 *L 0.0012 *D DFCNQD1BWP
*I *465:CDN I *C 194.43 2.84 *L 0.0012 *D DFCNQD1BWP
*I *463:CDN I *C 200.87 5.36 *L 0.0012 *D DFCNQD1BWP
*I *456:CDN I *C 205.07 2.84 *L 0.0012 *D DFCNQD1BWP
*I *432:CDN I *C 206.05 5.36 *L 0.0012 *D DFCNQD1BWP
*I *455:CDN I *C 215.15 3.68 *L 0.0012 *D DFCNQD1BWP
*I *480:CDN I *C 210.67 3.68 *L 0.0012 *D DFCNQD1BWP
*I *457:CDN I *C 219.21 2.84 *L 0.0012 *D DFCNQD1BWP
*I *458:CDN I *C 221.45 2.84 *L 0.0012 *D DFCNQD1BWP
*I *459:CDN I *C 227.61 2.84 *L 0.0012 *D DFCNQD1BWP
*I *460:CDN I *C 228.59 5.36 *L 0.0012 *D DFCNQD1BWP
*I *461:CDN I *C 233.35 5.36 *L 0.0012 *D DFCNQD1BWP
*I *462:CDN I *C 234.89 2.84 *L 0.0012 *D DFCNQD1BWP
*I *489:CDN I *C 239.37 5.36 *L 0.0012 *D DFCNQD1BWP
*I *497:CDN I *C 240.49 2.84 *L 0.0012 *D DFCNQD1BWP
*I *479:CDN I *C 244.69 2.84 *L 0.0012 *D DFCNQD1BWP
*I *488:CDN I *C 248.47 5.36 *L 0.0012 *D DFCNQD1BWP
*I *445:CDN I *C 255.75 2.84 *L 0.0012 *D DFCNQD1BWP
*I *496:CDN I *C 252.25 5.36 *L 0.0012 *D DFCNQD1BWP
*I *478:CDN I *C 244.55 5.36 *L 0.0012 *D DFCNQD1BWP
*I *437:CDN I *C 265.55 2.84 *L 0.0012 *D DFCNQD1BWP
*I *436:CDN I *C 268.49 5.36 *L 0.0012 *D DFCNQD1BWP
*I *443:CDN I *C 258.83 5.36 *L 0.0012 *D DFCNQD1BWP
*I *444:CDN I *C 262.61 5.36 *L 0.0012 *D DFCNQD1BWP
*I *442:CDN I *C 270.45 3.68 *L 0.0012 *D DFCNQD1BWP
*I *438:CDN I *C 276.75 2.84 *L 0.0012 *D DFCNQD1BWP
*I *441:CDN I *C 283.61 5.36 *L 0.0012 *D DFCNQD1BWP
*I *439:CDN I *C 283.33 2.84 *L 0.0012 *D DFCNQD1BWP
*I *440:CDN I *C 277.59 5.36 *L 0.0012 *D DFCNQD1BWP
*I *404:Z O *C 143.61 5.36 *L 0 *D BUFFD4BWP

*CAP
1 *441:CDN 0.000174582
2 *439:CDN 5.99027e-05
3 *440:CDN 0.000123739
4 *438:CDN 0.000125289
5 *442:CDN 7.45058e-06
6 *436:CDN 9.77516e-06
7 *437:CDN 0.000127375
8 *444:CDN 9.47714e-06
9 *443:CDN 1.13845e-05
10 *445:CDN 3.65376e-05
11 *496:CDN 8.22544e-06
12 *488:CDN 1.15037e-05
13 *479:CDN 6.30021e-05
14 *478:CDN 1.72853e-05
15 *497:CDN 8.34465e-06
16 *489:CDN 1.78218e-05
17 *462:CDN 4.54187e-05
18 *461:CDN 4.17233e-06
19 *460:CDN 5.35846e-05
20 *459:CDN 5.25117e-05
21 *458:CDN 8.52346e-06
22 *457:CDN 1.26958e-05
23 *455:CDN 1.66297e-05
24 *480:CDN 2.04444e-05
25 *432:CDN 0.00012809
26 *456:CDN 1.508e-05
27 *463:CDN 0.00028199
28 *465:CDN 6.1512e-05
29 *466:CDN 0.000260949
30 *464:CDN 1.35899e-05
31 *470:CDN 9.03606e-05
32 *472:CDN 1.24574e-05
33 *481:CDN 7.04527e-05
34 *498:CDN 0.000103831
35 *471:CDN 6.96778e-05
36 *467:CDN 1.96695e-05
37 *468:CDN 1.56164e-05
38 *490:CDN 3.34978e-05
39 *473:CDN 5.81741e-05
40 *469:CDN 1.10269e-05
41 *499:CDN 1.11461e-05
42 *491:CDN 0.000219762
43 *404:Z 0.000100613
44 *49:43 0.000457525
45 *49:44 0.000544071
46 *49:45 0.000372648
47 *49:46 0.000673831
48 *49:47 0.00064081
49 *49:48 0.000348985
50 *49:49 0.000633359
51 *49:50 0.000267267
52 *49:51 0.000330865
53 *49:52 0.000546038
54 *49:53 0.000171185
55 *49:54 0.000553727
56 *49:55 0.000457525
57 *49:56 0.000508308
58 *49:57 0.000424683
59 *49:58 0.000525117
60 *49:59 0.000597417
61 *49:60 0.00019002
62 *49:61 0.000347376
63 *49:62 0.000369668
64 *49:63 0.000114441
65 *49:64 0.000333607
66 *49:65 0.000440717
67 *49:66 0.000384331
68 *49:67 0.000585139
69 *49:68 0.000804722
70 *49:69 0.000617921
71 *49:70 0.000537515
72 *49:71 0.000427186
73 *49:72 0.000325739
74 *49:73 0.000622332
75 *49:74 0.000136316
76 *49:75 0.000411451
77 *49:76 0.000335634
78 *49:77 0.000152469
79 *49:78 0.000175953
80 *49:79 0.000250161
81 *49:80 0.000239909
82 *49:81 0.000428259
83 *49:82 0.000553906
84 *49:83 0.000518084
85 *49:84 0.000326753
86 *49:85 0.000299513
87 *49:86 0.000270247
88 *49:87 0.000127077
89 *49:88 0.000295579
90 *49:89 0.000386834
91 *49:90 0.000469625
92 *49:91 0.000358641
93 *49:92 0.000256479
94 *49:93 0.000212431
95 *49:93 *499:CP 4.51207e-05
96 *49:86 *469:CP 5.66244e-05
97 *473:CDN *40:132 7.45058e-06
98 *49:84 *469:CP 2.97427e-05
99 *49:83 *468:CP 4.57168e-05
100 *49:82 *40:124 0.000169456
101 *49:82 *40:123 0.00025773
102 *49:82 *467:CP 1.3113e-05
103 *49:81 *40:123 0.000110805
104 *49:81 *40:122 0.000139177
105 *49:78 *472:CP 4.27961e-05
106 *49:69 *480:CP 2.29478e-05
107 *49:68 *455:CP 9.29832e-06
108 *49:65 *40:102 5.94258e-05
109 *49:59 *461:CP 1.94907e-05
110 *49:59 *489:CP 1.78218e-05
111 *49:55 *488:CP 2.49147e-05
112 *49:54 *496:CP 2.24113e-05
113 *49:53 *443:CP 4.25577e-05
114 *49:50 *444:CP 4.11868e-05
115 *49:48 *40:86 4.17233e-07
116 *49:48 *437:CP 1.39475e-05
117 *49:47 *436:CP 2.25902e-05
118 *49:44 *442:CP 1.3113e-06
119 *49:93 *194:5 0.000113726
120 *49:93 *499:D 0.000107288
121 *491:CDN *172:7 9.54866e-05
122 *49:91 *174:10 0.000341356
123 *49:90 *174:9 0.000341356
124 *49:90 *84:12 0.000315309
125 *49:89 *84:11 0.000315309
126 *49:90 *42:16 0.000210762
127 *49:88 *353:4 9.89437e-05
128 *49:84 *469:D 0.000291944
129 *49:84 *388:I 0.000129223
130 *49:82 *91:7 0.000210136
131 *49:81 *91:6 0.000210136
132 *49:78 *238:8 0.000367403
133 *49:78 *71:4 0.00039649
134 *49:77 *100:7 0.000309825
135 *49:74 *100:6 0.000309825
136 *49:77 *92:4 0.000236273
137 *49:74 *92:3 0.000236273
138 *49:75 *21:5 0.000215173
139 *49:73 *21:4 0.000215173
140 *49:74 *201:3 9.83477e-05
141 *49:73 *177:3 0.000248373
142 *49:71 *177:4 0.000248373
143 *49:73 *211:5 0.000261545
144 *49:71 *63:3 0.000240922
145 *432:CDN *224:3 0.000110269
146 *49:69 *480:D 8.47578e-05
147 *49:69 *366:I 0.000140011
148 *49:68 *579:ZN 0.000207365
149 *49:67 *240:9 0.000207365
150 *49:68 *178:6 0.000130892
151 *49:66 *41:4 0.000258744
152 *49:65 *41:3 0.000258744
153 *49:65 *256:7 0.000276923
154 *49:64 *74:19 0.000593603
155 *49:61 *74:8 0.000593603
156 *49:61 *250:10 0.00033927
157 *49:61 *341:5 0.000105262
158 *49:60 *614:A1 0.000145316
159 *49:59 *83:4 0.000400305
160 *49:59 *461:D 0.000109196
161 *49:53 *320:5 0.00012815
162 *49:51 *270:5 0.000284791
163 *49:51 *443:D 9.81092e-05
164 *49:47 *73:4 0.000228286
165 *440:CDN *506:I 0.00022006
166 *49:44 *242:4 0.000198662
167 *49:44 *383:I 0.000125527
168 *49:43 *268:11 0.00029707
169 *49:43 *57:2 0.000250936
170 *49:43 *149:2 0.000102282

*RES
1 *49:93 *404:Z 5.97656
2 *49:92 *49:93 2.36058
3 *491:CDN *49:92 9.68039
4 *49:91 *49:93 2.44808
5 *499:CDN *49:91 3.82257
6 *49:90 *49:91 13.2309
7 *49:89 *49:90 13.5094
8 *469:CDN *49:88 2.00689
9 *49:88 *49:89 8.25846
10 *49:87 *49:86 3.41809
11 *49:86 *49:85 4.23431
12 *49:85 *49:88 3.68845
13 *473:CDN *49:86 6.23882
14 *490:CDN *49:87 4.6494
15 *468:CDN *49:84 2.05791
16 *49:84 *49:85 6.85203
17 *467:CDN *49:83 2.11704
18 *49:83 *49:84 6.86312
19 *471:CDN *49:82 4.4893
20 *49:82 *49:83 13.9704
21 *498:CDN *49:82 7.45535
22 *481:CDN *49:81 4.53663
23 *49:81 *49:82 14.2316
24 *49:80 *49:81 4.25231
25 *472:CDN *49:79 3.85571
26 *49:79 *49:81 4.54354
27 *470:CDN *49:80 3.94869
28 *464:CDN *49:78 3.86643
29 *49:78 *49:79 9.95886
30 *49:77 *49:76 2.67243
31 *49:76 *49:78 2.25747
32 *466:CDN *49:76 8.24881
33 *49:75 *49:74 2.25067
34 *49:74 *49:77 13.3016
35 *465:CDN *49:75 6.46329
36 *49:73 *49:75 12.8664
37 *49:72 *49:73 2.37238
38 *463:CDN *49:72 8.80897
39 *456:CDN *49:71 2.00689
40 *49:71 *49:73 12.1051
41 *49:70 *49:71 5.26798
42 *432:CDN *49:70 6.10113
43 *49:69 *49:70 11.0956
44 *480:CDN *49:69 2.11716
45 *49:68 *49:69 8.39412
46 *455:CDN *49:68 2.00772
47 *49:67 *49:68 17.3905
48 *457:CDN *49:67 1.98507
49 *458:CDN *49:66 3.82042
50 *49:66 *49:67 3.07035
51 *459:CDN *49:65 6.24049
52 *49:65 *49:66 16.0431
53 *49:64 *49:65 2.55048
54 *49:63 *49:64 2.62249
55 *460:CDN *49:63 2.931
56 *461:CDN *49:62 1.9058
57 *49:61 *49:64 12.9004
58 *49:62 *49:61 2.6145
59 *49:60 *49:61 6.17969
60 *462:CDN *49:60 5.74064
61 *49:59 *49:62 9.32205
62 *489:CDN *49:59 2.00784
63 *49:58 *49:59 9.30965
64 *497:CDN *49:58 3.82018
65 *478:CDN *49:57 2.00689
66 *49:56 *49:58 11.9965
67 *49:57 *49:56 6.73473
68 *479:CDN *49:56 6.42884
69 *49:55 *49:57 6.22785
70 *488:CDN *49:55 2.00689
71 *49:54 *49:55 6.22797
72 *496:CDN *49:54 3.82042
73 *445:CDN *49:53 4.92656
74 *49:53 *49:52 7.66695
75 *49:52 *49:54 11.4146
76 *49:51 *49:52 8.2972
77 *443:CDN *49:51 3.85582
78 *49:50 *49:51 6.46222
79 *444:CDN *49:50 3.82042
80 *49:49 *49:50 1.44148
81 *49:48 *49:49 12.5414
82 *437:CDN *49:48 6.07622
83 *49:47 *49:49 8.94427
84 *436:CDN *49:47 3.82018
85 *442:CDN *49:46 3.8265
86 *49:46 *49:47 13.1986
87 *438:CDN *49:45 5.8465
88 *440:CDN *49:44 9.01127
89 *49:45 *49:44 1.53029
90 *49:44 *49:46 19.7464
91 *439:CDN *49:43 6.17683
92 *49:43 *49:45 14.1071
93 *441:CDN *49:43 9.51982
*END

*D_NET *50 0.00167996

*CONN
*I *485:Q O *C 45.75 2.98 *L 0 *D DFCNQD1BWP
*I *405:I I *C 31.61 2.7 *L 0.0017 *D CKBD8BWP

*CAP
1 *485:Q 0.000110984
2 *405:I 0.000157058
3 *50:2 0.000354707
4 *50:3 0.000400782
5 *405:I *130:6 3.33786e-06
6 *50:3 *130:6 0.000144899
7 *50:3 *130:5 0.000104308
8 *50:2 *130:5 2.38419e-06
9 *405:I *66:2 8.07047e-05
10 *50:3 *81:7 0.000320792

*RES
1 *405:I *50:3 8.71956
2 *50:3 *50:2 18.736
3 *50:2 *485:Q 6.99103
*END

*D_NET *51 0.00208974

*CONN
*I *484:Q O *C 86.35 2.98 *L 0 *D DFCNQD1BWP
*I *406:I I *C 73.89 2.7 *L 0.0017 *D CKBD8BWP

*CAP
1 *484:Q 3.96371e-05
2 *406:I 0.000284672
3 *51:2 0.00039202
4 *51:3 0.000637054
5 *406:I *312:11 0.000169635
6 *406:I *80:5 0.000203967
7 *51:3 *131:56 0.000273943
8 *51:3 *81:3 8.88109e-05

*RES
1 *406:I *51:3 14.5351
2 *51:3 *51:2 10.5449
3 *51:2 *484:Q 5.25165
*END

*D_NET *52 0.0037055

*CONN
*I *483:Q O *C 123.59 2.98 *L 0 *D DFCNQD1BWP
*I *407:I I *C 107.49 3.82 *L 0.0017 *D CKBD8BWP

*CAP
1 *483:Q 0.000136256
2 *407:I 0.000611126
3 *52:2 0.000747383
4 *407:I *40:149 0.000119686
5 *52:2 *40:148 0.000119686
6 *407:I *314:8 0.000522673
7 *407:I *286:5 0.000366688
8 *407:I *627:A2 0.000121593
9 *407:I *627:A1 0.000105858
10 *407:I *160:3 0.000578582
11 *407:I *104:9 0.000179648
12 *52:2 *260:6 9.63211e-05

*RES
1 *407:I *52:2 59.2079
2 *52:2 *483:Q 6.68561
*END

*D_NET *53 0.000455022

*CONN
*I *482:Q O *C 142.35 3.54 *L 0 *D DFCNQD1BWP
*I *408:I I *C 142.63 2.7 *L 0.0017 *D CKBD8BWP

*CAP
1 *482:Q 0.000227511
2 *408:I 0.000227511

*RES
1 *408:I *482:Q 10.5281
*END

*D_NET *54 0.000593424

*CONN
*I *481:Q O *C 181.13 3.54 *L 0 *D DFCNQD1BWP
*I *409:I I *C 180.15 2.7 *L 0.0017 *D CKBD8BWP

*CAP
1 *481:Q 0.000156343
2 *409:I 4.24385e-05
3 *54:2 0.000196099
4 *54:3 8.21948e-05
5 *409:I *71:5 0.000116348

*RES
1 *409:I *54:3 3.68905
2 *54:3 *54:2 2.27702
3 *54:2 *481:Q 5.86998
*END

*D_NET *55 0.000684142

*CONN
*I *480:Q O *C 211.23 3.54 *L 0 *D DFCNQD1BWP
*I *410:I I *C 213.19 2.7 *L 0.0017 *D CKBD8BWP

*CAP
1 *410:I 9.12547e-05
2 *480:Q 0.000152171
3 *55:2 0.000243425
4 *410:I *579:I 0.000197291

*RES
1 *55:2 *480:Q 7.69997
2 *410:I *55:2 5.8111
*END

*D_NET *56 0.00099349

*CONN
*I *479:Q O *C 245.25 2.98 *L 0 *D DFCNQD1BWP
*I *411:I I *C 250.71 2.7 *L 0.0017 *D CKBD8BWP

*CAP
1 *411:I 0.000126004
2 *479:Q 0.00019598
3 *56:2 0.000321984
4 *56:2 *419:I 0.00023663
5 *411:I *240:8 0.000112891

*RES
1 *56:2 *479:Q 9.3503
2 *411:I *56:2 5.12064
*END

*D_NET *57 0.00520122

*CONN
*I *478:Q O *C 245.11 5.5 *L 0 *D DFCNQD1BWP
*I *412:I I *C 289.77 2.7 *L 0.0017 *D CKBD8BWP

*CAP
1 *412:I 0.000171006
2 *478:Q 0.000629544
3 *57:2 0.000425398
4 *57:3 0.000245154
5 *57:4 0.000362575
6 *57:5 0.000287473
7 *57:6 0.000498176
8 *57:7 0.000288129
9 *57:8 0.00111574
10 *57:8 *91:4 0.000120521
11 *57:6 *240:6 0.000313997
12 *57:6 *582:A1 9.799e-05
13 *57:5 *268:11 0.000267982
14 *57:2 *49:43 0.000250936
15 *57:2 *149:2 0.0001266

*RES
1 *57:8 *478:Q 23.6433
2 *57:7 *57:6 0.459433
3 *57:6 *57:8 20.9026
4 *57:5 *57:7 11.7159
5 *57:4 *57:5 0.255227
6 *57:3 *57:2 4.77672
7 *57:2 *57:4 15.5314
8 *412:I *57:3 5.3364
*END

*D_NET *58 0.00138545

*CONN
*I *503:Q O *C 37.63 2.98 *L 0 *D DFCNQD1BWP
*I *413:I I *C 28.81 2.7 *L 0.0017 *D CKBD8BWP

*CAP
1 *503:Q 0.000371397
2 *413:I 9.84073e-05
3 *58:2 0.000443459
4 *58:3 0.000170469
5 *413:I *66:3 0.00011754
6 *58:2 *141:4 0.000184178

*RES
1 *413:I *58:3 4.80556
2 *58:2 *503:Q 13.4107
3 *58:3 *58:2 4.80318
*END

*D_NET *59 0.000528336

*CONN
*I *502:Q O *C 65.07 5.5 *L 0 *D DFCNQD1BWP
*I *414:I I *C 65.35 2.7 *L 0.0017 *D CKBD8BWP

*CAP
1 *414:I 6.6638e-05
2 *502:Q 0.00019753
3 *59:2 0.000264168

*RES
1 *59:2 *502:Q 7.2794
2 *414:I *59:2 4.31955
*END

*D_NET *60 0.000162959

*CONN
*I *501:Q O *C 99.09 2.98 *L 0 *D DFCNQD1BWP
*I *415:I I *C 99.65 2.7 *L 0.0017 *D CKBD8BWP

*CAP
1 *501:Q 4.05908e-05
2 *415:I 4.05908e-05
3 *415:I *131:50 8.17776e-05

*RES
1 *415:I *501:Q 6.94942
*END

*D_NET *61 0.00107932

*CONN
*I *500:Q O *C 134.93 5.5 *L 0 *D DFCNQD1BWP
*I *416:I I *C 137.03 2.7 *L 0.0017 *D CKBD8BWP

*CAP
1 *416:I 3.8445e-05
2 *500:Q 0.000305712
3 *61:2 0.000344157
4 *416:I *172:9 0.000217199
5 *416:I *85:6 0.000173807

*RES
1 *61:2 *500:Q 10.3439
2 *416:I *61:2 6.43802
*END

*D_NET *62 0.00372517

*CONN
*I *499:Q O *C 147.67 5.5 *L 0 *D DFCNQD1BWP
*I *417:I I *C 167.41 2.7 *L 0.0017 *D CKBD8BWP

*CAP
1 *417:I 2.94447e-05
2 *499:Q 0.000527263
3 *62:2 0.000260949
4 *62:3 0.000457466
5 *62:4 0.000753224
6 *62:4 *654:A2 0.000162721
7 *62:4 *77:8 0.000246763
8 *62:3 *193:2 0.000488162
9 *62:2 *90:7 0.000181198
10 *62:2 *100:10 0.000401616
11 *417:I *172:4 0.000103116
12 *417:I *71:8 0.000113249

*RES
1 *62:4 *499:Q 23.5863
2 *62:3 *62:4 13.0323
3 *62:2 *62:3 12.148
4 *417:I *62:2 4.26829
*END

*D_NET *63 0.0061388

*CONN
*I *498:Q O *C 176.65 2.98 *L 0 *D DFCNQD1BWP
*I *418:I I *C 210.67 2.7 *L 0.0017 *D CKBD8BWP

*CAP
1 *418:I 5.84126e-05
2 *498:Q 0.000261784
3 *63:2 0.000123382
4 *63:3 0.000408471
5 *63:4 0.000205994
6 *63:5 0.000406206
7 *63:6 0.000133395
8 *63:7 0.000152409
9 *63:8 0.000386059
10 *63:8 *76:4 0.000819683
11 *63:8 *92:5 0.000140429
12 *63:4 *600:A1 0.000587583
13 *63:4 *211:4 0.000231147
14 *63:4 *100:6 0.00137877
15 *63:3 *49:71 0.000240922
16 *63:3 *162:4 0.000140667
17 *63:3 *330:3 0.000360727
18 *63:3 *177:4 0.000102758

*RES
1 *63:8 *498:Q 19.6921
2 *63:7 *63:6 0.254989
3 *63:6 *63:8 10.9098
4 *63:5 *63:4 8.52633
5 *63:4 *63:7 20.5284
6 *63:3 *63:5 12.4778
7 *63:2 *63:3 8.33631
8 *418:I *63:2 6.61421
*END

*D_NET *64 0.00140119

*CONN
*I *497:Q O *C 241.05 2.98 *L 0 *D DFCNQD1BWP
*I *419:I I *C 248.19 2.7 *L 0.0017 *D CKBD8BWP

*CAP
1 *419:I 4.43459e-05
2 *497:Q 0.000482976
3 *64:2 0.000527322
4 *419:I *240:8 0.000109911
5 *419:I *56:2 0.00023663

*RES
1 *64:2 *497:Q 15.6325
2 *419:I *64:2 5.80895
*END

*D_NET *65 0.00459313

*CONN
*I *496:Q O *C 252.81 5.5 *L 0 *D DFCNQD1BWP
*I *420:I I *C 286.83 2.7 *L 0.0017 *D CKBD8BWP

*CAP
1 *420:I 0.000223398
2 *496:Q 0.000174701
3 *65:2 0.000628173
4 *65:3 0.000595331
5 *65:4 0.000532985
6 *65:5 0.00051713
7 *65:5 *445:CP 1.5676e-05
8 *65:5 *40:88 0.000117838
9 *65:4 *40:88 5.48363e-06
10 *65:4 *40:87 0.0001176
11 *65:4 *40:85 9.2566e-05
12 *65:4 *40:84 8.69036e-05
13 *65:4 *40:82 0.000130653
14 *65:3 *40:82 0.000120819
15 *65:3 *40:80 3.32594e-05
16 *65:3 *40:79 1.71661e-05
17 *65:2 *40:79 3.63588e-06
18 *420:I *439:CP 5.36442e-07
19 *65:4 *74:6 0.000651836
20 *65:2 *73:2 0.000442028
21 *65:2 *151:2 8.54135e-05

*RES
1 *65:5 *496:Q 13.6658
2 *65:4 *65:5 20.7014
3 *65:3 *65:4 7.79808
4 *65:2 *65:3 17.4794
5 *420:I *65:2 10.1541
*END

*D_NET *66 0.00109398

*CONN
*I *495:Q O *C 32.31 2.98 *L 0 *D DFCNQD1BWP
*I *421:I I *C 26.01 2.7 *L 0.0017 *D CKBD8BWP

*CAP
1 *495:Q 7.37906e-05
2 *421:I 0.000166297
3 *66:2 0.000281572
4 *66:3 0.000374079
5 *66:3 *413:I 0.00011754
6 *66:2 *405:I 8.07047e-05

*RES
1 *421:I *66:3 5.48112
2 *66:3 *66:2 5.36442
3 *66:2 *495:Q 4.25589
*END

*D_NET *67 0.000581503

*CONN
*I *494:Q O *C 62.41 5.5 *L 0 *D DFCNQD1BWP
*I *422:I I *C 62.41 2.7 *L 0.0017 *D CKBD8BWP

*CAP
1 *494:Q 6.88434e-05
2 *422:I 0.000221908
3 *67:2 0.000290751

*RES
1 *422:I *67:2 7.45463
2 *67:2 *494:Q 4.45712
*END

*D_NET *68 0.000613809

*CONN
*I *493:Q O *C 95.03 5.5 *L 0 *D DFCNQD1BWP
*I *423:I I *C 95.45 2.7 *L 0.0017 *D CKBD8BWP

*CAP
1 *493:Q 0.000306904
2 *423:I 0.000306904

*RES
1 *423:I *493:Q 11.616
*END

*D_NET *69 0.000982881

*CONN
*I *492:Q O *C 130.45 2.98 *L 0 *D DFCNQD1BWP
*I *424:I I *C 134.51 2.7 *L 0.0017 *D CKBD8BWP

*CAP
1 *492:Q 0.000256181
2 *424:I 0.000256181
3 *424:I *172:9 0.000329852
4 *424:I *173:10 0.000140667

*RES
1 *424:I *492:Q 18.4085
*END

*D_NET *70 0.00528109

*CONN
*I *491:Q O *C 146.41 2.98 *L 0 *D DFCNQD1BWP
*I *425:I I *C 171.05 2.7 *L 0.0017 *D CKBD8BWP

*CAP
1 *425:I 6.74129e-05
2 *491:Q 0.000522077
3 *70:2 0.000168502
4 *70:3 0.000491738
5 *70:4 0.000912726
6 *70:4 *654:A2 0.000165522
7 *70:4 *181:2 0.000363052
8 *70:4 *657:A2 9.88245e-05
9 *70:3 *302:5 0.000160813
10 *70:3 *173:6 0.00121045
11 *70:3 *194:3 0.000492096
12 *70:3 *296:2 0.000141263
13 *425:I *172:3 0.000277638
14 *425:I *71:6 0.000208974

*RES
1 *70:4 *491:Q 22.2933
2 *70:3 *70:4 17.1282
3 *70:2 *70:3 10.4446
4 *425:I *70:2 10.0421
*END

*D_NET *71 0.0081054

*CONN
*I *490:Q O *C 166.43 2.98 *L 0 *D DFCNQD1BWP
*I *426:I I *C 208.15 2.7 *L 0.0017 *D CKBD8BWP

*CAP
1 *426:I 0.000443578
2 *490:Q 6.4671e-05
3 *71:2 0.000597835
4 *71:3 0.000195324
5 *71:4 0.000421882
6 *71:5 0.000673592
7 *71:6 0.000317216
8 *71:7 0.00030148
9 *71:8 0.000373185
10 *71:8 *417:I 0.000113249
11 *71:6 *498:CP 2.93255e-05
12 *71:4 *472:CP 1.84178e-05
13 *71:4 *464:CP 4.25577e-05
14 *71:3 *464:CP 2.26498e-06
15 *426:I *456:CP 2.04444e-05
16 *71:6 *172:3 9.52482e-05
17 *71:6 *425:I 0.000208974
18 *71:6 *352:4 0.000920653
19 *71:5 *532:A2 9.66787e-05
20 *71:5 *532:A1 0.000109673
21 *71:5 *409:I 0.000116348
22 *71:4 *49:78 0.00039649
23 *71:2 *76:12 0.00111663
24 *71:2 *41:7 0.00119424
25 *426:I *228:11 0.000110626
26 *426:I *15:4 0.000124812

*RES
1 *71:8 *490:Q 4.28724
2 *71:7 *71:6 0.153065
3 *71:6 *71:8 10.8784
4 *71:5 *71:7 16.0557
5 *71:4 *71:5 12.9334
6 *71:3 *71:4 8.04996
7 *71:2 *71:3 23.6704
8 *426:I *71:2 23.3804
*END

*D_NET *72 0.00130039

*CONN
*I *489:Q O *C 239.93 5.5 *L 0 *D DFCNQD1BWP
*I *427:I I *C 245.81 2.7 *L 0.0017 *D CKBD8BWP

*CAP
1 *489:Q 0.0006091
2 *427:I 0.0006091
3 *427:I *240:8 8.21948e-05

*RES
1 *427:I *489:Q 24.1996
*END

*D_NET *73 0.00698054

*CONN
*I *488:Q O *C 249.03 5.5 *L 0 *D DFCNQD1BWP
*I *428:I I *C 286.83 5.22 *L 0.0017 *D CKBD8BWP

*CAP
1 *428:I 6.55055e-05
2 *488:Q 0.000260353
3 *73:2 0.000267446
4 *73:3 0.000468433
5 *73:4 0.000528514
6 *73:5 0.000486732
7 *73:6 0.000779211
8 *73:7 0.000814855
9 *73:7 *496:CP 8.9407e-06
10 *73:6 *444:CP 8.34465e-07
11 *73:5 *444:CP 2.85506e-05
12 *73:4 *436:CP 4.26769e-05
13 *73:3 *40:80 0.000107169
14 *73:3 *40:79 0.0003483
15 *73:3 *438:CP 1.78814e-07
16 *73:2 *40:79 0.000107169
17 *73:2 *40:77 0.00025484
18 *73:2 *441:CP 2.99811e-05
19 *428:I *441:CP 4.29153e-06
20 *73:6 *268:17 0.000100672
21 *73:4 *49:47 0.000228286
22 *73:4 *243:4 0.00075233
23 *73:4 *321:3 0.00040853
24 *73:4 *587:A1 9.17912e-05
25 *73:3 *583:A2 8.55923e-05
26 *73:2 *65:2 0.000442028
27 *73:2 *151:2 0.000267327

*RES
1 *73:7 *488:Q 7.61569
2 *73:6 *73:7 12.5364
3 *73:5 *73:6 5.26464
4 *73:4 *73:5 22.724
5 *73:3 *73:4 15.375
6 *73:2 *73:3 21.6942
7 *428:I *73:2 12.041
*END

*D_NET *74 0.0238984

*CONN
*P *74 I *C 288.5 0 *L 0
*I *646:A3 I *C 118.13 5.22 *L 0.000447 *D AOI32D0BWP

*CAP
1 *74 2.12789e-05
2 *646:A3 0.000137031
3 *74:2 0.000301003
4 *74:3 0.000954926
5 *74:4 0.00107771
6 *74:5 0.000877082
7 *74:6 0.000557423
8 *74:7 0.000462651
9 *74:8 0.000527799
10 *74:9 0.00060904
11 *74:10 0.000564456
12 *74:11 0.000517905
13 *74:12 0.000428796
14 *74:13 0.000125706
15 *74:14 0.000172853
16 *74:15 0.000206411
17 *74:16 0.000291169
18 *74:17 0.000147402
19 *74:18 0.000535548
20 *74:19 0.000267506
21 *74:20 0.000646472
22 *74:20 *250:11 4.05908e-05
23 *74:19 *250:10 2.68221e-06
24 *74:18 *250:16 3.98159e-05
25 *74:18 *250:15 0.000114679
26 *74:17 *250:15 3.8743e-06
27 *646:A3 *250:29 0.000109971
28 *74:16 *250:29 0.000658333
29 *74:16 *250:24 1.75238e-05
30 *74:16 *250:23 2.563e-06
31 *74:15 *250:23 6.18696e-05
32 *74:14 *250:23 4.88758e-06
33 *74:14 *250:22 4.58956e-06
34 *74:12 *250:22 0.000369132
35 *74:12 *250:20 0.000347197
36 *74:12 *250:19 4.11272e-06
37 *74:11 *250:19 1.5378e-05
38 *74:10 *250:19 4.05312e-06
39 *74:10 *250:18 0.00052923
40 *74:10 *250:16 0.000599325
41 *74:9 *250:15 1.04308e-05
42 *74:9 *250:14 0.000601709
43 *74:9 *250:12 0.000313818
44 *74:9 *250:11 0.00019908
45 *74:8 *250:10 4.11272e-06
46 *74:8 *250:8 0.000520527
47 *74:8 *250:7 3.35574e-05
48 *74:20 *341:5 0.00032413
49 *74:20 *99:6 0.000300169
50 *74:19 *99:6 0.000310421
51 *74:19 *99:4 9.03606e-05
52 *74:18 *99:12 0.000647903
53 *74:18 *99:9 0.000180602
54 *74:17 *99:9 2.33054e-05
55 *74:17 *99:12 8.7738e-05
56 *74:10 *99:10 1.20997e-05
57 *74:10 *99:9 0.000647903
58 *74:9 *99:12 0.000119567
59 *74:9 *99:11 0.000376821
60 *74:9 *99:8 0.000845432
61 *74:9 *99:7 8.54135e-05
62 *74:9 *99:6 0.000103176
63 *74:8 *99:4 0.000649393
64 *74:7 *99:4 6.04987e-05
65 *74:7 *99:3 4.51207e-05
66 *74:19 *49:64 0.000593603
67 *74:8 *49:61 0.000593603
68 *74:16 *253:6 0.000639677
69 *74:14 *311:6 0.000722766
70 *74:14 *215:4 0.000542521
71 *74:12 *174:10 0.000460744
72 *74:12 *84:13 0.000200629
73 *74:11 *648:I 8.39829e-05
74 *74:11 *353:5 0.00014621
75 *74:8 *40:92 2.8491e-05
76 *74:8 *40:91 8.47578e-05
77 *74:8 *40:89 7.62343e-05
78 *74:7 *40:88 2.6226e-06
79 *74:6 *268:15 0.000117421
80 *74:6 *65:4 0.000651836

*RES
1 *74:20 *74:19 8.75735
2 *74:18 *74:17 5.08952
3 *646:A3 *74:16 15.3521
4 *74:16 *74:15 13.8053
5 *74:15 *74:14 3.2599
6 *74:14 *74:13 11.5923
7 *74:13 *74:12 0.153184
8 *74:12 *74:11 28.9032
9 *74:11 *74:10 6.13725
10 *74:10 *74:18 40.8337
11 *74:17 *74:9 2.52593
12 *74:9 *74:20 40.9913
13 *74:19 *74:8 10.1933
14 *74:8 *74:7 28.6738
15 *74:7 *74:6 4.82595
16 *74:6 *74:5 21.4123
17 *74:5 *74:4 13.073
18 *74:4 *74:3 20.5119
19 *74:3 *74:2 12.4098
20 *74:2 *74 0.506282
*END

*D_NET *75 0.0196939

*CONN
*P *75 I *C 251.25 0 *L 0
*I *642:A2 I *C 117.29 5.36 *L 0.000441 *D CKND2D0BWP

*CAP
1 *75 3.46899e-05
2 *642:A2 5.53727e-05
3 *75:2 0.000207663
4 *75:3 0.000896454
5 *75:4 0.00107801
6 *75:5 0.000712991
7 *75:6 0.000415087
8 *75:7 0.000137806
9 *75:8 0.000286281
10 *75:9 0.000209033
11 *75:10 0.000811338
12 *75:11 0.000281274
13 *75:12 0.000575185
14 *75:13 0.000358999
15 *75:14 0.000609934
16 *75:14 *198:3 1.96695e-06
17 *75:13 *198:3 7.62939e-06
18 *75:12 *198:6 0.000599146
19 *75:11 *198:6 0.000346601
20 *75:10 *198:7 0.000963271
21 *75:10 *198:6 0.000444591
22 *75:9 *198:10 4.98891e-05
23 *75:8 *198:10 0.000110805
24 *75:8 *198:8 0.000668705
25 *75:6 *198:8 0.000958383
26 *75:6 *198:7 0.000443935
27 *75:5 *198:6 0.000105798
28 *75:5 *198:3 0.000736952
29 *75:13 *574:B 8.9407e-05
30 *75:13 *360:I 8.27908e-05
31 *75:12 *18:17 0.000913829
32 *75:12 *18:5 0.000598937
33 *75:11 *18:5 0.00046584
34 *75:11 *18:3 0.000295043
35 *75:10 *18:19 0.000921518
36 *75:10 *18:17 0.00119618
37 *75:9 *18:7 7.95722e-05
38 *75:8 *18:7 1.23978e-05
39 *75:8 *18:6 0.000735521
40 *75:8 *18:19 1.23978e-05
41 *75:6 *18:18 0.000461131
42 *75:6 *18:19 0.000597239
43 *75:5 *18:3 0.000124037
44 *75:5 *18:2 2.19941e-05
45 *75:5 *83:12 0.000849366
46 *75:4 *41:2 0.000128925

*RES
1 *75:14 *75:13 0.159979
2 *75:12 *75:11 17.9188
3 *75:10 *75:12 41.7756
4 *642:A2 *75:9 4.79639
5 *75:9 *75:8 7.09653
6 *75:8 *75:7 15.7496
7 *75:6 *75:10 41.7757
8 *75:7 *75:6 0.153065
9 *75:11 *75:5 8.45754
10 *75:5 *75:14 41.2953
11 *75:4 *75:3 29.1481
12 *75:13 *75:4 12.0809
13 *75:2 *75 0.899553
14 *75:3 *75:2 7.10464
*END

*D_NET *76 0.0147198

*CONN
*P *76 I *C 214 0 *L 0
*I *644:B2 I *C 118.69 2.7 *L 0.000452 *D AOI22D0BWP

*CAP
1 *76 2.89083e-05
2 *644:B2 8.35061e-05
3 *76:2 0.000313222
4 *76:3 0.000492632
5 *76:4 0.000561357
6 *76:5 0.000213444
7 *76:6 0.000321984
8 *76:7 0.000543714
9 *76:8 0.000542104
10 *76:9 0.000268459
11 *76:10 0.000238299
12 *76:11 0.000489593
13 *76:12 0.000835896
14 *76:12 *330:8 0.00146425
15 *76:4 *330:14 0.00146425
16 *76:12 *600:A1 0.000607133
17 *76:12 *516:A3 0.000232697
18 *76:12 *71:2 0.00111663
19 *76:11 *41:5 0.000378728
20 *76:11 *100:4 0.000321865
21 *644:B2 *130:3 5.25713e-05
22 *76:10 *130:3 0.000318706
23 *76:10 *130:2 0.000334084
24 *76:9 *130:2 0.000355005
25 *76:8 *130:2 3.57628e-06
26 *76:10 *85:8 0.000639796
27 *76:9 *131:42 0.000308514
28 *76:8 *86:4 0.000124693
29 *76:6 *302:7 0.00013876
30 *76:6 *663:B1 0.000293195
31 *76:6 *172:4 0.000329375
32 *76:4 *77:4 0.000483155
33 *76:4 *63:8 0.000819683

*RES
1 *76:12 *76:11 27.7401
2 *644:B2 *76:10 13.9493
3 *76:10 *76:9 13.824
4 *76:9 *76:8 9.00459
5 *76:8 *76:7 21.2386
6 *76:7 *76:6 5.38528
7 *76:6 *76:5 20.7156
8 *76:4 *76:12 42.5187
9 *76:5 *76:4 0.255227
10 *76:11 *76:3 13.767
11 *76:3 *76:2 10.0071
12 *76:2 *76 0.681043
*END

*D_NET *77 0.00836909

*CONN
*P *77 I *C 176.75 0 *L 0
*I *641:B2 I *C 115.19 2.7 *L 0.000452 *D AOI22D0BWP

*CAP
1 *77 3.39746e-05
2 *641:B2 3.70145e-05
3 *77:2 0.00025773
4 *77:3 0.000515401
5 *77:4 0.000456572
6 *77:5 0.000573218
7 *77:6 0.000744641
8 *77:7 0.000180244
9 *77:8 0.000488698
10 *77:9 0.000681818
11 *77:8 *62:4 0.000246763
12 *641:B2 *636:A2 9.78708e-05
13 *77:6 *280:6 0.00017333
14 *77:6 *97:2 0.000235677
15 *77:6 *95:2 0.000774264
16 *77:6 *189:2 8.89301e-05
17 *77:6 *78:4 0.000764847
18 *77:5 *172:4 0.000536323
19 *77:5 *296:4 0.000438094
20 *77:4 *76:4 0.000483155
21 *77:4 *92:5 0.000560522

*RES
1 *77:9 *77:8 5.03862
2 *641:B2 *77:7 5.40209
3 *77:6 *77:9 40.7879
4 *77:7 *77:6 10.1308
5 *77:8 *77:5 17.3018
6 *77:5 *77:4 14.0053
7 *77:4 *77:3 21.2173
8 *77:2 *77 0.870347
9 *77:3 *77:2 7.51388
*END

*D_NET *78 0.00286365

*CONN
*P *78 I *C 139.5 0 *L 0
*I *643:A2 I *C 122.75 2.84 *L 0.000441 *D CKND2D0BWP

*CAP
1 *78 3.37958e-05
2 *643:A2 8.2612e-05
3 *78:2 0.000180006
4 *78:3 0.000466526
5 *78:4 0.000456095
6 *78:5 0.000218391
7 *78:4 *97:4 0.000661373
8 *78:4 *77:6 0.000764847

*RES
1 *643:A2 *78:5 5.09191
2 *78:4 *78:3 21.7505
3 *78:5 *78:4 9.67765
4 *78:2 *78 0.855803
5 *78:3 *78:2 5.91195
*END

*D_NET *79 0.00159156

*CONN
*P *79 I *C 102.25 0 *L 0
*I *640:A2 I *C 107.77 2.7 *L 0.000418 *D AOI21D0BWP

*CAP
1 *640:A2 5.26309e-05
2 *79 0.00043577
3 *79:2 0.0004884
4 *79:2 *172:13 0.000448108
5 *640:A2 *339:8 0.000166655

*RES
1 *79:2 *79 18.7109
2 *640:A2 *79:2 7.71368
*END

*D_NET *80 0.00710618

*CONN
*P *80 I *C 65 0 *L 0
*I *644:A2 I *C 117.85 2.7 *L 0.000452 *D AOI22D0BWP

*CAP
1 *644:A2 0.000158668
2 *80 0.000230968
3 *80:2 0.000810862
4 *80:3 0.000488698
5 *80:4 0.000456631
6 *80:5 0.000389874
7 *80:6 0.000779033
8 *80:5 *406:I 0.000203967
9 *80:3 *312:11 0.000153065
10 *80:2 *81:3 0.000707746
11 *80:2 *88:2 0.00210118
12 *80:2 *189:3 0.000625491

*RES
1 *80:6 *80:5 8.85808
2 *80:4 *80 8.58021
3 *80:3 *80:4 11.1986
4 *80:5 *80:3 14.7175
5 *80:2 *80:6 40.8598
6 *644:A2 *80:2 13.7515
*END

*D_NET *81 0.00989616

*CONN
*P *81 I *C 27.75 0 *L 0
*I *641:A2 I *C 114.35 2.7 *L 0.000452 *D AOI22D0BWP

*CAP
1 *641:A2 0.000205994
2 *81 0.000207424
3 *81:2 0.000455976
4 *81:3 0.000840128
5 *81:4 0.00114554
6 *81:5 0.000679493
7 *81:6 0.00128508
8 *81:7 0.00213385
9 *81:7 *50:3 0.000320792
10 *81:5 *40:157 2.26498e-06
11 *81:4 *40:160 2.83718e-05
12 *81:4 *40:159 6.71148e-05
13 *81:4 *40:158 7.77245e-05
14 *81:4 *40:157 2.77162e-05
15 *81:4 *312:14 0.000327706
16 *81:3 *80:2 0.000707746
17 *81:3 *51:3 8.88109e-05
18 *81:3 *111 0.00013113
19 *81:2 *131:47 0.00039053
20 *81:2 *189:3 0.000465989
21 *81:2 *628:A2 0.000306785

*RES
1 *81:7 *81:6 40.1163
2 *81:6 *81 7.74372
3 *81:5 *81:4 4.96662
4 *81:4 *81:7 41.0409
5 *81:3 *81:5 28.3196
6 *81:2 *81:3 17.1155
7 *641:A2 *81:2 15.2787
*END

*D_NET *82 0.021951

*CONN
*P *82 I *C 289.6 0 *L 0
*I *638:A3 I *C 120.09 5.22 *L 0.000447 *D AOI32D0BWP

*CAP
1 *82 1.57952e-05
2 *638:A3 0.000108719
3 *82:2 0.000389218
4 *82:3 4.18425e-05
5 *82:4 0.000383079
6 *82:5 0.000737846
7 *82:6 0.00113678
8 *82:7 0.00099659
9 *82:8 0.000499249
10 *82:9 0.000543237
11 *82:10 0.00109595
12 *82:11 0.00113118
13 *82:12 0.00154912
14 *82:13 0.000932336
15 *82:14 0.00188112
16 *82:12 *268:20 0.000489861
17 *82:12 *268:19 0.000449419
18 *82:12 *268:18 2.8491e-05
19 *82:11 *268:40 0.000979751
20 *82:11 *268:19 0.000233233
21 *82:10 *268:42 0.000976682
22 *82:10 *268:20 0.000397444
23 *82:9 *268:27 8.9407e-07
24 *82:6 *268:42 1.06096e-05
25 *82:5 *268:41 0.000486791
26 *82:5 *268:40 0.000400543
27 *82:11 *196:8 0.00137681
28 *82:10 *196:10 0.00137681
29 *82:9 *526:A1 0.000293016
30 *82:9 *158:3 0.0006001
31 *82:9 *195:3 0.000169873
32 *82:7 *83:7 0.000627339
33 *82:6 *83:11 0.000627339
34 *82:7 *42:17 0.000491977
35 *82:6 *42:16 0.000491977

*RES
1 *82:14 *82:13 32.4019
2 *82:12 *82:14 40.787
3 *82:11 *82:12 40.8278
4 *82:10 *82:11 40.9291
5 *82:9 *82:8 18.976
6 *638:A3 *82:9 13.2178
7 *82:8 *82:7 2.31183
8 *82:7 *82:6 34.9845
9 *82:6 *82:5 6.86038
10 *82:5 *82:10 40.8545
11 *82:4 *82:3 2.15447
12 *82:3 *82 0.273228
13 *82:13 *82:2 2.20096
14 *82:2 *82:4 10.5208
*END

*D_NET *83 0.0207682

*CONN
*P *83 I *C 252.35 0 *L 0
*I *634:A2 I *C 117.29 3.68 *L 0.000441 *D CKND2D0BWP

*CAP
1 *83 3.30806e-05
2 *634:A2 0.000287771
3 *83:2 0.000406921
4 *83:3 0.00137514
5 *83:4 0.00118631
6 *83:5 0.00081861
7 *83:6 0.00145143
8 *83:7 0.000653028
9 *83:8 0.000182271
10 *83:9 0.000463307
11 *83:10 0.000731647
12 *83:11 0.000769913
13 *83:12 0.000771642
14 *83:13 0.00098145
15 *83:13 *18:5 0.000844032
16 *83:13 *18:3 8.47578e-05
17 *83:13 *18:2 5.78165e-06
18 *83:13 *432:D 4.70877e-06
19 *83:11 *18:19 0.000462413
20 *83:11 *18:17 0.000872523
21 *83:10 *18:17 0.000493407
22 *83:10 *18:5 0.000242889
23 *634:A2 *18:8 1.01328e-05
24 *634:A2 *18:7 0.000115514
25 *634:A2 *18:6 1.90139e-05
26 *83:9 *18:6 0.00065881
27 *83:7 *18:6 1.90139e-05
28 *83:7 *18:18 0.000462413
29 *83:7 *18:19 0.0005593
30 *83:6 *18:17 0.000844032
31 *83:6 *18:3 0.000209808
32 *83:12 *565:A1 8.29697e-05
33 *83:12 *75:5 0.000849366
34 *83:12 *365:I 8.75592e-05
35 *83:11 *82:6 0.000627339
36 *83:7 *82:7 0.000627339
37 *83:11 *655:A1 0.000113368
38 *83:9 *158:3 0.000705838
39 *83:6 *536:A2 0.000184298
40 *83:6 *179:3 0.000511408
41 *83:5 *209:2 0.000278234
42 *83:4 *49:59 0.000400305
43 *83:4 *198:2 0.000279069

*RES
1 *83:13 *83:12 4.02558
2 *83:11 *83:10 6.40631
3 *634:A2 *83:9 18.5407
4 *83:9 *83:8 13.62
5 *83:7 *83:11 41.8068
6 *83:8 *83:7 0.153065
7 *83:10 *83:6 23.6496
8 *83:6 *83:13 42.5382
9 *83:12 *83:5 23.3735
10 *83:5 *83:4 9.8747
11 *83:4 *83:3 35.8254
12 *83:2 *83 0.870347
13 *83:3 *83:2 12.6346
*END

*D_NET *84 0.0161857

*CONN
*P *84 I *C 215.1 0 *L 0
*I *636:B2 I *C 117.15 2.7 *L 0.000452 *D AOI22D0BWP

*CAP
1 *84 3.29018e-05
2 *636:B2 0.000190079
3 *84:2 0.000357091
4 *84:3 0.000446856
5 *84:4 0.000127316
6 *84:5 0.000163674
7 *84:6 0.000242233
8 *84:7 0.000245452
9 *84:8 0.000208557
10 *84:9 0.000228107
11 *84:10 0.00023824
12 *84:11 0.000279725
13 *84:12 0.000296831
14 *84:13 0.000687778
15 *84:14 0.000116527
16 *84:15 0.000540674
17 *84:15 *40:148 0.000226051
18 *84:15 *40:144 9.47416e-05
19 *84:15 *40:140 0.000182271
20 *84:15 *40:139 0.000108987
21 *84:15 *40:137 0.00012511
22 *84:14 *40:137 0.000151634
23 *636:B2 *40:149 4.23193e-06
24 *84:13 *40:149 0.000226051
25 *84:13 *40:148 5.53727e-05
26 *84:13 *40:146 9.47416e-05
27 *84:13 *40:144 3.74913e-05
28 *84:13 *40:142 0.000182271
29 *84:13 *40:140 0.000108987
30 *84:13 *40:139 6.13332e-05
31 *84:13 *40:137 3.79086e-05
32 *84:12 *40:137 9.05096e-05
33 *84:12 *40:135 0.000306726
34 *84:11 *40:133 0.000217915
35 *84:11 *40:131 2.06828e-05
36 *84:11 *40:135 9.05096e-05
37 *84:10 *40:131 6.11544e-05
38 *84:10 *40:130 0.000220448
39 *84:10 *40:126 0.000121534
40 *84:10 *40:124 2.13385e-05
41 *84:9 *40:124 8.52346e-06
42 *84:9 *40:123 8.10623e-06
43 *84:9 *40:128 8.49664e-05
44 *84:8 *40:123 0.000268906
45 *84:8 *40:120 4.1008e-05
46 *84:8 *40:118 3.05176e-05
47 *84:8 *40:116 1.44243e-05
48 *84:7 *40:116 8.40425e-06
49 *84:7 *40:112 8.70228e-06
50 *84:7 *40:122 0.000150293
51 *84:6 *40:114 0.000100583
52 *84:6 *40:108 6.16312e-05
53 *84:5 *40:112 0.000100583
54 *84:4 *40:108 8.34465e-06
55 *84:15 *311:9 0.000663221
56 *84:13 *311:18 0.000663221
57 *84:14 *174:10 0.000665545
58 *84:13 *74:12 0.000200629
59 *84:12 *49:90 0.000315309
60 *84:11 *49:89 0.000315309
61 *84:7 *348:6 0.000380099
62 *84:6 *519:B2 0.000650883
63 *84:6 *162:6 0.000445068
64 *84:4 *210:7 0.000891924
65 *84:4 *99:8 0.00142473
66 *84:3 *99:7 0.00142473

*RES
1 *84:15 *84:14 3.56102
2 *636:B2 *84:13 14.6332
3 *84:13 *84:15 42.3703
4 *84:14 *84:12 6.3597
5 *84:12 *84:11 14.346
6 *84:11 *84:10 4.58825
7 *84:10 *84:9 14.5496
8 *84:9 *84:8 3.80409
9 *84:8 *84:7 14.3462
10 *84:7 *84:6 8.59678
11 *84:6 *84:5 25.1443
12 *84:5 *84:4 0.153184
13 *84:4 *84:3 15.8606
14 *84:3 *84:2 12.0596
15 *84:2 *84 0.855803
*END

*D_NET *85 0.0105366

*CONN
*P *85 I *C 177.85 0 *L 0
*I *632:B2 I *C 113.37 2.7 *L 0.000452 *D AOI22D0BWP

*CAP
1 *85 3.91603e-05
2 *632:B2 2.89083e-05
3 *85:2 0.000207245
4 *85:3 0.00168175
5 *85:4 0.00205231
6 *85:5 0.00101638
7 *85:6 0.000878513
8 *85:7 0.000585616
9 *85:8 0.000358343
10 *85:9 0.000277877
11 *85:10 0.000133276
12 *85:9 *339:5 0.000483513
13 *85:9 *130:3 0.000112176
14 *85:5 *130:2 2.28882e-05
15 *85:9 *645:A1 0.00015533
16 *85:8 *76:10 0.000639796
17 *85:7 *260:6 0.000109792
18 *85:7 *492:D 8.24928e-05
19 *85:6 *131:39 0.000352621
20 *85:5 *131:38 0.000352621
21 *85:6 *172:7 0.00027895
22 *85:6 *416:I 0.000173807
23 *85:5 *102:2 0.000100374
24 *85:3 *101:4 0.00027436
25 *85:3 *93:3 0.000138462

*RES
1 *632:B2 *85:10 5.09393
2 *85:10 *85:9 5.3041
3 *85:9 *85:8 14.7077
4 *85:8 *85:7 18.0131
5 *85:7 *85:6 12.2594
6 *85:6 *85:5 13.6199
7 *85:5 *85:4 18.9731
8 *85:4 *85:3 40.2505
9 *85:3 *85:2 16.1382
10 *85:2 *85 1.04511
*END

*D_NET *86 0.00267142

*CONN
*P *86 I *C 140.6 0 *L 0
*I *635:A2 I *C 122.75 3.68 *L 0.000441 *D CKND2D0BWP

*CAP
1 *86 3.28422e-05
2 *635:A2 0.000198185
3 *86:2 0.000253022
4 *86:3 0.000648022
5 *86:4 0.000725746
6 *86:5 0.000496089
7 *86:5 *103:5 0.000192821
8 *86:4 *76:8 0.000124693

*RES
1 *635:A2 *86:5 8.70681
2 *86:5 *86:4 10.8191
3 *86:4 *86:3 15.8942
4 *86:3 *86:2 7.52127
5 *86:2 *86 0.826716
*END

*D_NET *87 0.00156856

*CONN
*P *87 I *C 103.35 0 *L 0
*I *628:A2 I *C 109.17 2.7 *L 0.000418 *D AOI21D0BWP

*CAP
1 *87 0.000551343
2 *628:A2 0.000551343
3 *628:A2 *338:4 0.000159085
4 *628:A2 *81:2 0.000306785

*RES
1 *628:A2 *87 24.9275
*END

*D_NET *88 0.00630391

*CONN
*P *88 I *C 66.1 0 *L 0
*I *636:A2 I *C 116.31 2.7 *L 0.000452 *D AOI22D0BWP

*CAP
1 *636:A2 0.000313997
2 *88 0.000166774
3 *88:2 0.000868976
4 *88:3 0.000519574
5 *88:4 0.000907779
6 *88:2 *89:2 0.00132775
7 *88:2 *80:2 0.00210118
8 *636:A2 *641:B2 9.78708e-05

*RES
1 *88:4 *88:3 25.817
2 *88:3 *88 6.91795
3 *88:2 *88:4 40.8771
4 *636:A2 *88:2 20.3401
*END

*D_NET *89 0.00879037

*CONN
*P *89 I *C 28.85 0 *L 0
*I *632:A2 I *C 112.53 2.7 *L 0.000452 *D AOI22D0BWP

*CAP
1 *632:A2 0.00032562
2 *89 0.000126183
3 *89:2 0.00105596
4 *89:3 0.0015592
5 *89:4 0.000758827
6 *89:5 0.00146151
7 *89:5 *312:17 0.000535727
8 *89:5 *105:5 0.000743031
9 *89:4 *105:7 0.000743031
10 *89:2 *88:2 0.00132775
11 *632:A2 *280:7 0.000153542

*RES
1 *89:5 *89:4 34.2214
2 *89:3 *89:5 40.9803
3 *89:4 *89 5.96774
4 *89:2 *89:3 40.8592
5 *632:A2 *89:2 16.7165
*END

*D_NET *90 0.0138077

*CONN
*P *90 I *C 291.8 0 *L 0
*I *660:A3 I *C 161.53 2.7 *L 0.000447 *D AOI32D0BWP

*CAP
1 *90 1.98483e-05
2 *660:A3 4.38094e-05
3 *90:2 0.000185013
4 *90:3 0.000937998
5 *90:4 0.00111413
6 *90:5 0.000354409
7 *90:6 0.00096482
8 *90:7 0.000884593
9 *90:8 0.000160754
10 *90:9 0.000255585
11 *90:10 0.000918865
12 *90:11 0.00194186
13 *90:12 0.000298381
14 *90:13 0.00136667
15 *90:9 *21:5 0.000350714
16 *660:A3 *172:4 0.000130773
17 *90:7 *173:4 0.000813603
18 *90:7 *100:10 0.000329018
19 *90:7 *62:2 0.000181198
20 *90:6 *256:12 0.000167966
21 *90:6 *330:4 0.000634789
22 *90:6 *177:2 0.00111973
23 *90:5 *268:14 0.000453234
24 *90:4 *582:A2 0.000179887

*RES
1 *90:13 *90:12 10.0969
2 *90:11 *90:13 40.9911
3 *90:10 *90:9 9.47118
4 *660:A3 *90:8 6.35099
5 *90:7 *90:10 40.8103
6 *90:8 *90:7 9.51886
7 *90:9 *90:6 6.00576
8 *90:6 *90:11 40.851
9 *90:5 *90:4 17.7858
10 *90:12 *90:5 0.459194
11 *90:4 *90:3 28.5543
12 *90:2 *90 0.418901
13 *90:3 *90:2 6.74677
*END

*D_NET *91 0.0136272

*CONN
*P *91 I *C 254.55 0 *L 0
*I *656:A2 I *C 159.99 3.68 *L 0.000441 *D CKND2D0BWP

*CAP
1 *91 2.94447e-05
2 *656:A2 3.29614e-05
3 *91:2 0.000267625
4 *91:3 0.000910342
5 *91:4 0.000876308
6 *91:5 0.000591338
7 *91:6 0.000276208
8 *91:7 0.000435174
9 *91:8 0.000325799
10 *91:9 9.79304e-05
11 *91:10 0.000227034
12 *91:11 0.000512362
13 *91:11 *40:112 0.000139594
14 *91:11 *40:106 8.62777e-05
15 *91:11 *40:104 0.000119269
16 *91:9 *40:133 1.15037e-05
17 *91:8 *40:133 5.60284e-05
18 *91:8 *40:131 9.51886e-05
19 *91:8 *40:130 0.000219434
20 *91:8 *40:126 0.000121057
21 *91:8 *40:124 5.99027e-05
22 *91:8 *40:123 4.52995e-05
23 *91:7 *40:123 5.72205e-06
24 *91:7 *40:122 0.000130594
25 *91:7 *40:120 3.97563e-05
26 *91:7 *40:118 2.74181e-06
27 *91:7 *40:128 8.4132e-05
28 *91:6 *40:118 0.000160336
29 *91:6 *40:114 9.23872e-06
30 *91:5 *40:114 0.000142276
31 *91:5 *40:108 8.62777e-05
32 *91:5 *40:105 0.000142574
33 *91:5 *40:103 2.96831e-05
34 *91:5 *40:116 0.000119925
35 *91:3 *445:CP 1.06692e-05
36 *91:11 *41:7 0.0014208
37 *91:5 *41:9 0.0014208
38 *91:10 *210:5 0.000643134
39 *656:A2 *306:5 0.000217795
40 *656:A2 *197:2 0.000179887
41 *91:8 *330:8 0.00094533
42 *91:7 *49:82 0.000210136
43 *91:6 *49:81 0.000210136
44 *91:6 *214:4 0.000283241
45 *91:5 *176:2 0.000915408
46 *91:4 *578:C 0.000104785
47 *91:4 *99:4 0.00045526
48 *91:4 *57:8 0.000120521

*RES
1 *91:11 *91:10 1.37472
2 *656:A2 *91:9 8.68273
3 *91:8 *91:7 19.5638
4 *91:9 *91:8 4.704
5 *91:7 *91:6 14.9071
6 *91:6 *91:5 7.24638
7 *91:5 *91:11 47.9659
8 *91:10 *91:4 15.0614
9 *91:4 *91:3 38.0522
10 *91:2 *91 0.812173
11 *91:3 *91:2 9.14145
*END

*D_NET *92 0.00734627

*CONN
*P *92 I *C 217.3 0 *L 0
*I *658:B2 I *C 157.75 2.7 *L 0.000452 *D AOI22D0BWP

*CAP
1 *92 3.17693e-05
2 *658:B2 4.63128e-05
3 *92:2 0.000210762
4 *92:3 0.00111419
5 *92:4 0.00104052
6 *92:5 0.00117773
7 *92:6 0.000166059
8 *92:7 0.000202894
9 *92:8 0.00115556
10 *92:5 *77:4 0.000560522
11 *92:5 *63:8 0.000140429
12 *92:4 *49:77 0.000236273
13 *92:3 *49:74 0.000236273
14 *92:4 *100:4 0.00102699

*RES
1 *92:8 *92:7 4.01747
2 *658:B2 *92:6 4.46248
3 *92:5 *92:8 40.7207
4 *92:6 *92:5 5.18763
5 *92:7 *92:4 2.62964
6 *92:4 *92:3 37.9738
7 *92:2 *92 0.79751
8 *92:3 *92:2 6.90234
*END

*D_NET *93 0.00368518

*CONN
*P *93 I *C 180.05 0 *L 0
*I *654:B2 I *C 154.39 2.7 *L 0.000452 *D AOI22D0BWP

*CAP
1 *93 3.1054e-05
2 *654:B2 0.000218868
3 *93:2 0.000231445
4 *93:3 0.000593543
5 *93:4 0.000612021
6 *93:4 *100:10 0.000758171
7 *93:4 *101:4 0.00110161
8 *93:3 *85:3 0.000138462

*RES
1 *654:B2 *93:4 15.0782
2 *93:4 *93:3 28.2612
3 *93:3 *93:2 13.3672
4 *93:2 *93 0.782967
*END

*D_NET *94 0.0016256

*CONN
*P *94 I *C 142.8 0 *L 0
*I *657:A2 I *C 148.51 2.84 *L 0.000441 *D CKND2D0BWP

*CAP
1 *94 0.000510275
2 *657:A2 0.000510275
3 *657:A2 *181:9 0.000144482
4 *657:A2 *173:8 0.000361741
5 *657:A2 *70:4 9.88245e-05

*RES
1 *657:A2 *94 34.5795
*END

*D_NET *95 0.00558829

*CONN
*P *95 I *C 105.55 0 *L 0
*I *650:A2 I *C 149.35 2.7 *L 0.000418 *D AOI21D0BWP

*CAP
1 *650:A2 0.000246465
2 *95 0.000155091
3 *95:2 0.000855863
4 *95:3 0.00069803
5 *95:4 0.000908315
6 *95:5 0.000974774
7 *95:2 *105:2 0.000784397
8 *95:2 *77:6 0.000774264
9 *650:A2 *300:8 8.39829e-05
10 *650:A2 *172:6 0.00010711

*RES
1 *95:5 *95 18.1791
2 *95:4 *95:5 22.8899
3 *95:3 *95:4 4.77624
4 *95:2 *95:3 37.5837
5 *650:A2 *95:2 24.9312
*END

*D_NET *96 0.0109195

*CONN
*P *96 I *C 68.3 0 *L 0
*I *658:A2 I *C 156.91 2.7 *L 0.000452 *D AOI22D0BWP

*CAP
1 *658:A2 4.30942e-05
2 *96 0.000520229
3 *96:2 0.000380635
4 *96:3 0.00117505
5 *96:4 0.000394344
6 *96:5 0.000810504
7 *96:6 0.000394523
8 *96:7 0.00132352
9 *96:8 0.000546038
10 *96:9 0.00137651
11 *96:9 *195:4 0.000353575
12 *96:5 *607:A1 0.000449657
13 *96:5 *314:12 0.000989795
14 *96:4 *268:33 0.000458717
15 *96:3 *182:4 0.00132775
16 *96:3 *42:14 0.000135183
17 *96:2 *305:2 0.000147343
18 *658:A2 *302:7 9.29832e-05

*RES
1 *96:9 *96:8 26.3051
2 *96:7 *96 14.2251
3 *96:6 *96:5 0.255227
4 *96:5 *96:7 40.5302
5 *96:4 *96:6 17.4154
6 *96:8 *96:4 0.255227
7 *96:3 *96:9 40.8924
8 *96:2 *96:3 11.1554
9 *658:A2 *96:2 5.39541
*END

*D_NET *97 0.0179053

*CONN
*P *97 I *C 31.05 0 *L 0
*I *654:A2 I *C 153.55 2.7 *L 0.000452 *D AOI22D0BWP

*CAP
1 *654:A2 0.000322103
2 *97 0.000479758
3 *97:2 0.000501812
4 *97:3 0.000244081
5 *97:4 0.000317812
6 *97:5 0.00102961
7 *97:6 0.000765383
8 *97:7 0.000508428
9 *97:8 0.00108355
10 *97:9 0.00114787
11 *97:10 0.000326037
12 *97:11 0.000879347
13 *97:11 *143:10 0.000293612
14 *97:10 *143:10 4.23193e-06
15 *97:9 *143:10 4.4167e-05
16 *97:9 *143:8 0.00074774
17 *97:8 *143:13 0.000508606
18 *97:8 *143:8 4.47035e-05
19 *97:8 *143:4 0.000752389
20 *97:6 *143:12 1.27554e-05
21 *97:5 *143:4 4.16636e-05
22 *97:5 *143:14 0.000508606
23 *97:5 *143:12 0.000317752
24 *97:11 *181:6 2.92063e-05
25 *97:11 *181:5 0.000143349
26 *97:9 *181:5 0.000165105
27 *97:9 *181:3 0.00110358
28 *97:8 *181:3 0.000276744
29 *97:8 *181:7 0.00110358
30 *97:6 *181:8 1.27554e-05
31 *97:5 *181:7 0.000275075
32 *97:5 *181:8 0.00109804
33 *654:A2 *181:2 9.01818e-05
34 *97:4 *173:10 0.000349283
35 *97:4 *189:2 0.000171185
36 *97:4 *78:4 0.000661373
37 *97:2 *77:6 0.000235677
38 *97:2 *193:4 0.0009799
39 *654:A2 *70:4 0.000165522
40 *654:A2 *62:4 0.000162721

*RES
1 *97:11 *97:10 15.4399
2 *97:9 *97:11 40.929
3 *97:8 *97:9 40.8272
4 *97:10 *97:7 2.20072
5 *97:7 *97 12.5847
6 *97:6 *97:5 13.8514
7 *97:5 *97:8 40.7406
8 *97:4 *97:6 16.9307
9 *97:3 *97:4 4.50337
10 *97:2 *97:3 11.9524
11 *654:A2 *97:2 25.081
*END

*D_NET *98 0.0141143

*CONN
*P *98 I *C 292.9 0 *L 0
*I *668:A3 I *C 159.29 5.22 *L 0.000447 *D AOI32D0BWP

*CAP
1 *98 3.1054e-05
2 *668:A3 0.000142992
3 *98:2 0.000315607
4 *98:3 0.000587463
5 *98:4 0.000309825
6 *98:5 0.0002141
7 *98:6 0.000385761
8 *98:7 0.000487745
9 *98:8 0.000316203
10 *98:9 0.000597656
11 *98:10 0.000597596
12 *98:11 0.000951409
13 *98:12 0.00164104
14 *98:13 0.000610411
15 *98:14 0.00143605
16 *98:14 *42:7 0.00169283
17 *98:12 *42:9 0.00169283
18 *98:14 *40:98 5.36442e-07
19 *98:14 *40:96 2.08616e-06
20 *98:10 *40:96 3.19481e-05
21 *98:10 *40:95 0.000133991
22 *98:10 *40:93 1.43051e-06
23 *98:10 *40:92 0.000127494
24 *98:10 *40:91 0.000122607
25 *98:10 *40:89 0.00011003
26 *98:10 *40:88 9.78112e-05
27 *98:10 *40:87 2.21729e-05
28 *98:8 *40:87 4.64916e-06
29 *98:8 *40:82 3.75509e-06
30 *98:7 *40:82 0.000125766
31 *98:7 *40:80 3.68357e-05
32 *98:7 *40:79 1.40667e-05
33 *98:6 *40:79 3.99351e-06
34 *98:6 *40:77 4.11272e-06
35 *98:4 *40:77 0.000105381
36 *98:4 *441:CP 9.83477e-06
37 *668:A3 *668:B1 0.000118375
38 *98:8 *232:4 0.0006423
39 *98:6 *324:5 0.000384569

*RES
1 *98:14 *98:13 30.0776
2 *98:12 *98:14 40.9182
3 *668:A3 *98:11 11.5364
4 *98:11 *98:12 40.8792
5 *98:10 *98:9 29.3411
6 *98:13 *98:10 0.255227
7 *98:9 *98:8 0.255227
8 *98:8 *98:7 17.9061
9 *98:7 *98:6 8.55911
10 *98:6 *98:5 12.0078
11 *98:4 *98:3 13.6116
12 *98:5 *98:4 0.255227
13 *98:2 *98 0.79751
14 *98:3 *98:2 12.1977
*END

*D_NET *99 0.013295

*CONN
*P *99 I *C 255.65 0 *L 0
*I *664:A2 I *C 162.93 3.68 *L 0.000441 *D CKND2D0BWP

*CAP
1 *99 1.7643e-05
2 *664:A2 0.000114322
3 *99:2 0.000313401
4 *99:3 0.000784278
5 *99:4 0.000496268
6 *99:5 0.000258327
7 *99:6 0.000337422
8 *99:7 0.000334978
9 *99:8 0.000343978
10 *99:9 0.000535309
11 *99:10 0.00021565
12 *99:11 0.000172138
13 *99:12 0.000510275
14 *99:12 *74:18 0.000647903
15 *99:12 *74:17 8.7738e-05
16 *99:12 *74:9 0.000119567
17 *99:11 *74:9 0.000376821
18 *99:10 *74:10 1.20997e-05
19 *99:9 *74:10 0.000647903
20 *99:9 *74:18 0.000180602
21 *99:9 *74:17 2.33054e-05
22 *99:8 *74:9 0.000845432
23 *99:7 *74:9 8.54135e-05
24 *99:6 *74:9 0.000103176
25 *99:6 *74:20 0.000300169
26 *99:6 *74:19 0.000310421
27 *99:4 *74:19 9.03606e-05
28 *99:4 *74:8 0.000649393
29 *99:4 *74:7 6.04987e-05
30 *99:3 *74:7 4.51207e-05
31 *99:11 *162:6 0.000339031
32 *99:8 *210:7 0.000136256
33 *99:8 *84:4 0.00142473
34 *99:7 *84:3 0.00142473
35 *99:6 *228:6 0.000270486
36 *99:6 *344:4 0.000121355
37 *99:4 *91:4 0.00045526
38 *99:3 *7:2 0.000103235

*RES
1 *99:12 *99:11 5.22959
2 *664:A2 *99:10 5.8713
3 *99:10 *99:9 4.9808
4 *99:9 *99:12 41.0316
5 *99:11 *99:8 7.85077
6 *99:8 *99:7 23.7085
7 *99:7 *99:6 4.68719
8 *99:6 *99:5 17.6375
9 *99:4 *99:3 33.6665
10 *99:5 *99:4 0.255227
11 *99:3 *99:2 12.3931
12 *99:2 *99 0.375152
*END

*D_NET *100 0.00889045

*CONN
*P *100 I *C 218.4 0 *L 0
*I *666:B2 I *C 155.65 2.7 *L 0.000452 *D AOI22D0BWP

*CAP
1 *100 2.99811e-05
2 *666:B2 0.000216007
3 *100:2 0.000236034
4 *100:3 0.000584185
5 *100:4 0.000390351
6 *100:5 0.000139475
7 *100:6 0.000175714
8 *100:7 0.00018549
9 *100:8 0.00029546
10 *100:9 0.000751138
11 *100:10 0.000808716
12 *100:10 *90:7 0.000329018
13 *100:10 *93:4 0.000758171
14 *100:10 *62:2 0.000401616
15 *100:7 *49:77 0.000309825
16 *100:6 *49:74 0.000309825
17 *100:6 *63:4 0.00137877
18 *100:4 *40:104 9.06587e-05
19 *100:4 *40:102 4.91142e-05
20 *100:3 *40:102 1.13845e-05
21 *100:3 *40:103 9.06587e-05
22 *100:4 *76:11 0.000321865
23 *100:4 *92:4 0.00102699

*RES
1 *666:B2 *100:10 11.0373
2 *100:10 *100:9 39.3387
3 *100:9 *100:8 6.40631
4 *100:8 *100:7 12.3216
5 *100:7 *100:6 10.5258
6 *100:6 *100:5 10.6683
7 *100:5 *100:4 0.255227
8 *100:4 *100:3 23.043
9 *100:2 *100 0.768423
10 *100:3 *100:2 7.5134
*END

*D_NET *101 0.00401264

*CONN
*P *101 I *C 181.15 0 *L 0
*I *663:B2 I *C 151.73 2.7 *L 0.000452 *D AOI22D0BWP

*CAP
1 *101 4.11272e-05
2 *663:B2 0.000342846
3 *101:2 0.000159144
4 *101:3 0.000934362
5 *101:4 0.00115919
6 *101:4 *85:3 0.00027436
7 *101:4 *93:4 0.00110161

*RES
1 *663:B2 *101:4 17.4139
2 *101:4 *101:3 39.8986
3 *101:3 *101:2 6.73318
4 *101:2 *101 1.16169
*END

*D_NET *102 0.000947595

*CONN
*P *102 I *C 143.9 0 *L 0
*I *665:A2 I *C 147.25 2.84 *L 0.000441 *D CKND2D0BWP

*CAP
1 *665:A2 3.01003e-05
2 *102 0.000341833
3 *102:2 0.000371933
4 *102:2 *85:5 0.000100374
5 *665:A2 *172:7 0.000103354

*RES
1 *102:2 *102 15.5882
2 *665:A2 *102:2 5.90432
*END

*D_NET *103 0.00700051

*CONN
*P *103 I *C 106.65 0 *L 0
*I *662:A2 I *C 148.79 5.22 *L 0.000418 *D AOI21D0BWP

*CAP
1 *662:A2 5.53727e-05
2 *103 0.000201404
3 *103:2 0.000172675
4 *103:3 0.000750244
5 *103:4 0.00114536
6 *103:5 0.000948429
7 *103:6 0.00102949
8 *103:7 0.000794888
9 *103:6 *339:5 0.000241518
10 *103:6 *172:12 0.000134587
11 *103:5 *131:43 0.000180721
12 *103:5 *86:5 0.000192821
13 *103:4 *251:6 0.000447392
14 *103:4 *190:2 0.000296354
15 *103:3 *194:5 0.000409246

*RES
1 *103:7 *103 10.759
2 *103:6 *103:7 22.9584
3 *103:5 *103:6 18.399
4 *103:4 *103:5 13.7959
5 *103:3 *103:4 17.6808
6 *103:2 *103:3 5.19931
7 *662:A2 *103:2 4.98629
*END

*D_NET *104 0.0138301

*CONN
*P *104 I *C 69.4 0 *L 0
*I *666:A2 I *C 154.81 2.7 *L 0.000452 *D AOI22D0BWP

*CAP
1 *666:A2 0.000136971
2 *104 0.000382423
3 *104:2 0.000528157
4 *104:3 0.00015682
5 *104:4 0.000598609
6 *104:5 9.42946e-05
7 *104:6 0.000426769
8 *104:7 7.34329e-05
9 *104:8 0.000560582
10 *104:9 0.000251412
11 *104:10 0.000698209
12 *104:10 *40:146 9.42946e-05
13 *104:10 *40:142 0.000191629
14 *104:10 *40:140 0.000102192
15 *104:10 *40:137 0.00026539
16 *104:10 *40:148 0.000268459
17 *104:9 *40:149 0.000252962
18 *104:8 *40:149 0.000234246
19 *104:4 *449:CP 2.12789e-05
20 *104:4 *40:150 0.00015229
21 *104:4 *40:148 0.000234246
22 *104:3 *40:137 4.23193e-06
23 *104:2 *40:148 2.84314e-05
24 *104:2 *40:144 0.000132143
25 *104:2 *40:140 0.000191629
26 *104:2 *40:139 0.000164121
27 *104:2 *40:135 0.00026539
28 *104:10 *130:3 0.00104222
29 *104:10 *130:2 0.000138104
30 *104:9 *130:3 0.000219405
31 *104:8 *130:4 5.82337e-05
32 *104:7 *130:4 0.000219643
33 *104:6 *130:4 7.12275e-05
34 *104:5 *130:4 1.85966e-05
35 *104:4 *130:4 0.000532746
36 *104:4 *130:3 0.000921905
37 *104:2 *130:2 0.000666827
38 *104:2 *395:I 4.35114e-06
39 *104:9 *407:I 0.000179648
40 *104:6 *250:28 0.000513554
41 *104:5 *250:27 0.000513554
42 *104:6 *311:14 0.000495672
43 *104:5 *555:A2 0.000883818
44 *104:4 *251:7 0.000715613
45 *104:2 *330:14 0.000124335

*RES
1 *104:10 *104:9 14.4476
2 *104:8 *104:7 1.72961
3 *104:6 *104 15.3072
4 *104:5 *104:6 24.0397
5 *104:7 *104:5 4.66263
6 *104:4 *104:8 40.8002
7 *104:9 *104:4 4.65643
8 *104:3 *104:2 3.96025
9 *104:2 *104:10 40.6543
10 *666:A2 *104:3 10.0417
*END

*D_NET *105 0.0110282

*CONN
*P *105 I *C 32.15 0 *L 0
*I *663:A2 I *C 150.89 2.7 *L 0.000452 *D AOI22D0BWP

*CAP
1 *663:A2 0.00025481
2 *105 7.06315e-05
3 *105:2 0.00119287
4 *105:3 0.0018962
5 *105:4 0.00183862
6 *105:5 0.00176519
7 *105:6 0.000261843
8 *105:7 0.00107592
9 *105:7 *89:4 0.000743031
10 *105:5 *89:5 0.000743031
11 *105:3 *280:6 0.000401616
12 *105:2 *95:2 0.000784397

*RES
1 *105:7 *105:6 9.34064
2 *105:5 *105:7 41.0055
3 *105:4 *105:5 40.9035
4 *105:3 *105:4 41.3765
5 *105:6 *105 6.52695
6 *105:2 *105:3 40.8291
7 *663:A2 *105:2 15.5466
*END

*D_NET *106 0.00096035

*CONN
*I *428:Z O *C 288.09 5.36 *L 0 *D CKBD8BWP
*P *106 O *C 286.3 0 *L 0.1

*CAP
1 *106 0.000305891
2 *428:Z 0.000133157
3 *106:2 0.000347018
4 *106:3 0.000174284

*RES
1 *106:3 *428:Z 4.20654
2 *106:2 *106:3 2.20346
3 *106 *106:2 10.9221
*END

*D_NET *107 0.000619173

*CONN
*I *427:Z O *C 247.07 2.84 *L 0 *D CKBD8BWP
*P *107 O *C 249.05 0 *L 0.1

*CAP
1 *107 7.84993e-05
2 *427:Z 0.000231087
3 *107:2 0.000309587

*RES
1 *107:2 *427:Z 9.72354
2 *107 *107:2 2.38502
*END

*D_NET *108 0.000692248

*CONN
*I *426:Z O *C 209.41 2.84 *L 0 *D CKBD8BWP
*P *108 O *C 211.8 0 *L 0.1

*CAP
1 *108 9.65595e-05
2 *426:Z 0.000249565
3 *108:2 0.000346124

*RES
1 *108:2 *426:Z 9.80139
2 *108 *108:2 2.98214
*END

*D_NET *109 0.00111276

*CONN
*I *425:Z O *C 172.31 2.84 *L 0 *D CKBD8BWP
*P *109 O *C 174.55 0 *L 0.1

*CAP
1 *425:Z 0.000174999
2 *109 0.000169098
3 *109:2 0.000344098
4 *109:2 *172:3 8.50558e-05
5 *109:2 *498:D 0.000109434
6 *109:2 *117:2 0.000230074

*RES
1 *109 *109:2 7.1404
2 *109:2 *425:Z 13.3667
*END

*D_NET *110 0.000638843

*CONN
*I *424:Z O *C 135.77 2.84 *L 0 *D CKBD8BWP
*P *110 O *C 137.3 0 *L 0.1

*CAP
1 *110 5.97835e-05
2 *424:Z 0.000259638
3 *110:2 0.000319421

*RES
1 *110:2 *424:Z 9.72354
2 *110 *110:2 1.72961
*END

*D_NET *111 0.00142956

*CONN
*I *423:Z O *C 94.19 2.84 *L 0 *D CKBD8BWP
*P *111 O *C 100.05 0 *L 0.1

*CAP
1 *423:Z 0.000504196
2 *111 0.000504196
3 *111 *131:52 0.000290036
4 *111 *81:3 0.00013113

*RES
1 *111 *423:Z 19.4073
*END

*D_NET *112 0.000623941

*CONN
*I *422:Z O *C 61.15 2.84 *L 0 *D CKBD8BWP
*P *112 O *C 62.8 0 *L 0.1

*CAP
1 *112 7.39694e-05
2 *422:Z 0.000238001
3 *112:2 0.000311971

*RES
1 *112:2 *422:Z 9.54258
2 *112 *112:2 2.21026
*END

*D_NET *113 0.000503302

*CONN
*I *421:Z O *C 24.75 2.84 *L 0 *D CKBD8BWP
*P *113 O *C 25.55 0 *L 0.1

*CAP
1 *113 3.33786e-05
2 *421:Z 0.000218272
3 *113:2 0.000251651

*RES
1 *113:2 *421:Z 9.54318
2 *113 *113:2 0.870347
*END

*D_NET *114 0.000530362

*CONN
*I *420:Z O *C 288.09 2.84 *L 0 *D CKBD8BWP
*P *114 O *C 287.4 0 *L 0.1

*CAP
1 *420:Z 4.31538e-05
2 *114 0.000222027
3 *114:2 0.000265181

*RES
1 *114 *114:2 7.84445
2 *114:2 *420:Z 2.23184
*END

*D_NET *115 0.000490665

*CONN
*I *419:Z O *C 249.45 2.84 *L 0 *D CKBD8BWP
*P *115 O *C 250.15 0 *L 0.1

*CAP
1 *419:Z 0.000245333
2 *115 0.000245333

*RES
1 *115 *419:Z 10.0621
*END

*D_NET *116 0.000556707

*CONN
*I *418:Z O *C 211.93 2.84 *L 0 *D CKBD8BWP
*P *116 O *C 212.9 0 *L 0.1

*CAP
1 *116 3.48091e-05
2 *418:Z 0.000243545
3 *116:2 0.000278354

*RES
1 *116:2 *418:Z 9.72402
2 *116 *116:2 0.914097
*END

*D_NET *117 0.00189477

*CONN
*I *417:Z O *C 168.67 2.84 *L 0 *D CKBD8BWP
*P *117 O *C 175.65 0 *L 0.1

*CAP
1 *117 4.14848e-05
2 *417:Z 0.000389755
3 *117:2 0.00043124
4 *117:2 *172:3 0.000536144
5 *117:2 *194:2 0.000266075
6 *117:2 *109:2 0.000230074

*RES
1 *117:2 *417:Z 27.6511
2 *117 *117:2 1.1034
*END

*D_NET *118 0.000600696

*CONN
*I *416:Z O *C 138.29 2.84 *L 0 *D CKBD8BWP
*P *118 O *C 138.4 0 *L 0.1

*CAP
1 *118 0.000249863
2 *416:Z 5.04851e-05
3 *118:2 0.000300348

*RES
1 *118:2 *416:Z 2.41566
2 *118 *118:2 7.75921
*END

*D_NET *119 0.000513077

*CONN
*I *415:Z O *C 100.91 2.84 *L 0 *D CKBD8BWP
*P *119 O *C 101.15 0 *L 0.1

*CAP
1 *119 4.1008e-05
2 *415:Z 0.00021553
3 *119:2 0.000256538

*RES
1 *119:2 *415:Z 7.36606
2 *119 *119:2 2.4662
*END

*D_NET *120 0.00053978

*CONN
*I *414:Z O *C 64.09 2.84 *L 0 *D CKBD8BWP
*P *120 O *C 63.9 0 *L 0.1

*CAP
1 *414:Z 4.24385e-05
2 *120 0.000227451
3 *120:2 0.00026989

*RES
1 *120 *120:2 7.77531
2 *120:2 *414:Z 2.23136
*END

*D_NET *121 0.000496864

*CONN
*I *413:Z O *C 27.55 2.84 *L 0 *D CKBD8BWP
*P *121 O *C 26.65 0 *L 0.1

*CAP
1 *413:Z 0.000191569
2 *121 3.14116e-05
3 *121:2 0.000217021
4 *121:3 5.68628e-05

*RES
1 *121 *121:3 0.812173
2 *121:2 *413:Z 7.38907
3 *121:3 *121:2 2.15375
*END

*D_NET *122 0.000478864

*CONN
*I *412:Z O *C 291.03 2.84 *L 0 *D CKBD8BWP
*P *122 O *C 290.7 0 *L 0.1

*CAP
1 *412:Z 0.000196874
2 *122 4.25577e-05
3 *122:2 0.000239432

*RES
1 *122 *122:2 2.54357
2 *122:2 *412:Z 7.3911
*END

*D_NET *123 0.000571609

*CONN
*I *411:Z O *C 251.97 2.84 *L 0 *D CKBD8BWP
*P *123 O *C 253.45 0 *L 0.1

*CAP
1 *411:Z 0.000285804
2 *123 0.000285804

*RES
1 *123 *411:Z 10.947
*END

*D_NET *124 0.000710487

*CONN
*I *410:Z O *C 214.45 2.84 *L 0 *D CKBD8BWP
*P *124 O *C 216.2 0 *L 0.1

*CAP
1 *124 1.9908e-05
2 *410:Z 0.000283778
3 *124:2 0.000303686
4 *124:2 *579:I 0.000103116

*RES
1 *124:2 *410:Z 11.1326
2 *124 *124:2 0.491738
*END

*D_NET *125 0.000708938

*CONN
*I *409:Z O *C 178.89 2.84 *L 0 *D CKBD8BWP
*P *125 O *C 178.95 0 *L 0.1

*CAP
1 *125 0.000294864
2 *409:Z 5.96046e-05
3 *125:2 0.000354469

*RES
1 *125:2 *409:Z 2.59995
2 *125 *125:2 8.68881
*END

*D_NET *126 0.000589728

*CONN
*I *408:Z O *C 141.37 2.84 *L 0 *D CKBD8BWP
*P *126 O *C 141.7 0 *L 0.1

*CAP
1 *408:Z 0.000294864
2 *126 0.000294864

*RES
1 *126 *408:Z 10.3146
*END

*D_NET *127 0.000982761

*CONN
*I *407:Z O *C 106.23 3.68 *L 0 *D CKBD8BWP
*P *127 O *C 104.45 0 *L 0.1

*CAP
1 *407:Z 7.35521e-05
2 *127 0.000337124
3 *127:2 0.000410676
4 *127:2 *160:3 0.000161409

*RES
1 *127 *127:2 9.73153
2 *127:2 *407:Z 4.43816
*END

*D_NET *128 0.00119936

*CONN
*I *406:Z O *C 72.63 2.84 *L 0 *D CKBD8BWP
*P *128 O *C 67.2 0 *L 0.1

*CAP
1 *406:Z 0.000276446
2 *128 3.42131e-05
3 *128:2 0.000502884
4 *128:3 0.000260651
5 *128:2 *312:11 0.00012517

*RES
1 *128 *128:3 0.884891
2 *128:3 *128:2 7.54225
3 *128:2 *406:Z 8.38232
*END

*D_NET *129 0.000520706

*CONN
*I *405:Z O *C 30.35 2.84 *L 0 *D CKBD8BWP
*P *129 O *C 29.95 0 *L 0.1

*CAP
1 *405:Z 0.000218511
2 *129 4.18425e-05
3 *129:2 0.000260353

*RES
1 *129 *129:2 2.44224
2 *129:2 *405:Z 7.38919
*END

*D_NET *130 0.0197825

*CONN
*I *395:I I *C 152.29 3.82 *L 0.00357 *D BUFFD20BWP
*P *130 I *C 0 1 *L 0

*CAP
1 *395:I 0.00011909
2 *130 0.000162661
3 *130:2 0.000499666
4 *130:3 0.000806868
5 *130:4 0.000801086
6 *130:5 0.00117666
7 *130:6 0.0016911
8 *130:7 0.000425875
9 *130:8 0.00115246
10 *130:8 *133:2 0.000149548
11 *130:6 *133:2 0.000139177
12 *130:6 *429:D 4.76837e-06
13 *130:8 *137 0.00056237
14 *130:8 *137:3 7.98702e-06
15 *130:7 *137 7.33137e-06
16 *130:8 *430:D 0.000289798
17 *130:7 *430:D 6.67572e-06
18 *130:7 *131:79 8.70228e-06
19 *130:5 *131:63 3.42131e-05
20 *130:5 *131:62 2.58684e-05
21 *130:2 *131:39 5.126e-06
22 *130:2 *131:38 5.47171e-05
23 *130:6 *183:6 7.70092e-05
24 *130:5 *183:6 9.33409e-05
25 *130:5 *183:5 3.24249e-05
26 *130:6 *405:I 3.33786e-06
27 *130:6 *50:3 0.000144899
28 *130:5 *50:3 0.000104308
29 *130:5 *50:2 2.38419e-06
30 *130:5 *250:28 0.000519842
31 *130:4 *250:27 0.000543147
32 *130:4 *597:B1 3.63588e-05
33 *130:5 *160:10 2.86102e-06
34 *130:5 *160:9 0.000179887
35 *130:5 *161:12 4.41074e-05
36 *130:5 *161:11 0.000369787
37 *130:4 *161:11 5.67436e-05
38 *130:4 *161:9 0.000616848
39 *130:4 *161:7 0.000566006
40 *130:4 *161:5 0.000486791
41 *130:3 *161:5 0.000313818
42 *130:3 *161:4 0.000249922
43 *130:4 *251:13 6.33001e-05
44 *130:4 *251:12 2.2769e-05
45 *130:4 *251:11 3.33786e-05
46 *130:4 *104:6 7.12275e-05
47 *130:4 *104:5 1.85966e-05
48 *130:4 *104:7 0.000219643
49 *130:4 *104:8 5.82337e-05
50 *130:4 *104:4 0.000532746
51 *130:3 *104:10 0.00104222
52 *130:3 *104:4 0.000921905
53 *130:3 *104:9 0.000219405
54 *130:2 *104:10 0.000138104
55 *130:2 *104:2 0.000666827
56 *395:I *104:2 4.35114e-06
57 *130:4 *30:2 6.19888e-06
58 *130:3 *30:2 7.70092e-05
59 *130:3 *260:16 2.51532e-05
60 *130:3 *260:6 8.2612e-05
61 *130:2 *260:6 3.12328e-05
62 *130:3 *644:B2 5.25713e-05
63 *130:3 *76:10 0.000318706
64 *130:2 *76:10 0.000334084
65 *130:2 *76:9 0.000355005
66 *130:2 *76:8 3.57628e-06
67 *130:3 *85:9 0.000112176
68 *130:2 *85:5 2.28882e-05
69 *130:3 *290:2 0.000535965
70 *130:2 *330:10 9.50694e-05
71 *130:2 *330:9 0.000679374
72 *130:2 *330:13 0.000451386
73 *395:I *330:13 8.70228e-06
74 *395:I *330:14 2.5034e-06

*RES
1 *130:8 *130:7 17.676
2 *130:6 *130:8 40.9063
3 *130:5 *130:6 41.0043
4 *130:4 *130:5 49.1712
5 *130:3 *130:4 43.3902
6 *130:7 *130 11.0906
7 *130:2 *130:3 44.8964
8 *395:I *130:2 13.2531
*END

*D_NET *131 0.033007

*CONN
*I *404:I I *C 142.91 5.22 *L 0.00121 *D BUFFD4BWP
*P *131 I *C 0 1.5 *L 0
*I *504:CDN I *C 19.29 5.36 *L 0.0012 *D DFCNQD1BWP
*I *503:CDN I *C 38.19 2.84 *L 0.0012 *D DFCNQD1BWP
*I *502:CDN I *C 65.63 5.36 *L 0.0012 *D DFCNQD1BWP
*I *501:CDN I *C 98.53 2.84 *L 0.0012 *D DFCNQD1BWP
*I *500:CDN I *C 134.37 5.36 *L 0.0012 *D DFCNQD1BWP
*I *495:CDN I *C 32.87 2.84 *L 0.0012 *D DFCNQD1BWP
*I *494:CDN I *C 61.85 5.36 *L 0.0012 *D DFCNQD1BWP
*I *493:CDN I *C 94.47 5.36 *L 0.0012 *D DFCNQD1BWP
*I *492:CDN I *C 129.89 2.84 *L 0.0012 *D DFCNQD1BWP
*I *487:CDN I *C 32.45 5.36 *L 0.0012 *D DFCNQD1BWP
*I *486:CDN I *C 37.07 5.36 *L 0.0012 *D DFCNQD1BWP
*I *485:CDN I *C 46.31 2.84 *L 0.0012 *D DFCNQD1BWP
*I *484:CDN I *C 86.91 2.84 *L 0.0012 *D DFCNQD1BWP
*I *483:CDN I *C 124.15 2.84 *L 0.0012 *D DFCNQD1BWP
*I *482:CDN I *C 141.79 3.68 *L 0.0012 *D DFCNQD1BWP
*I *477:CDN I *C 23.21 5.36 *L 0.0012 *D DFCNQD1BWP
*I *476:CDN I *C 27.55 5.36 *L 0.0012 *D DFCNQD1BWP
*I *475:CDN I *C 6.55 2.84 *L 0.0012 *D DFCNQD1BWP
*I *474:CDN I *C 123.73 5.36 *L 0.0012 *D DFCNQD1BWP
*I *454:CDN I *C 76.97 2.84 *L 0.0012 *D DFCNQD1BWP
*I *453:CDN I *C 104.69 2.84 *L 0.0012 *D DFCNQD1BWP
*I *452:CDN I *C 107.63 5.36 *L 0.0012 *D DFCNQD1BWP
*I *451:CDN I *C 75.43 5.36 *L 0.0012 *D DFCNQD1BWP
*I *450:CDN I *C 92.51 2.84 *L 0.0012 *D DFCNQD1BWP
*I *449:CDN I *C 103.99 3.68 *L 0.0012 *D DFCNQD1BWP
*I *448:CDN I *C 70.67 2.84 *L 0.0012 *D DFCNQD1BWP
*I *447:CDN I *C 80.75 2.84 *L 0.0012 *D DFCNQD1BWP
*I *446:CDN I *C 85.09 2.84 *L 0.0012 *D DFCNQD1BWP
*I *435:CDN I *C 52.61 5.36 *L 0.0012 *D DFCNQD1BWP
*I *434:CDN I *C 56.95 2.84 *L 0.0012 *D DFCNQD1BWP
*I *433:CDN I *C 133.53 2.84 *L 0.0012 *D DFCNQD1BWP
*I *431:CDN I *C 17.33 5.36 *L 0.0012 *D DFCNQD1BWP
*I *430:CDN I *C 7.67 3.68 *L 0.0012 *D DFCNQD1BWP
*I *429:CDN I *C 20.41 2.84 *L 0.0012 *D DFCNQD1BWP

*CAP
1 *404:I 4.66108e-05
2 *482:CDN 4.65512e-05
3 *500:CDN 5.59092e-05
4 *433:CDN 1.0848e-05
5 *492:CDN 5.94854e-05
6 *483:CDN 4.11272e-05
7 *474:CDN 0.000212669
8 *452:CDN 1.21593e-05
9 *453:CDN 1.63317e-05
10 *449:CDN 4.65512e-05
11 *501:CDN 9.71556e-06
12 *493:CDN 9.81092e-05
13 *450:CDN 1.31726e-05
14 *484:CDN 1.30534e-05
15 *446:CDN 8.52346e-06
16 *447:CDN 2.03848e-05
17 *454:CDN 1.65105e-05
18 *451:CDN 0.000219822
19 *448:CDN 1.71065e-05
20 *502:CDN 6.87838e-05
21 *494:CDN 6.17504e-05
22 *434:CDN 7.82013e-05
23 *435:CDN 0.000168085
24 *485:CDN 1.18613e-05
25 *503:CDN 1.11461e-05
26 *486:CDN 8.7142e-05
27 *495:CDN 0.00013876
28 *487:CDN 1.70469e-05
29 *476:CDN 1.75238e-05
30 *477:CDN 1.68681e-05
31 *429:CDN 0.000177562
32 *504:CDN 1.8537e-05
33 *431:CDN 1.64509e-05
34 *430:CDN 1.68085e-05
35 *475:CDN 5.06043e-05
36 *131 0.000352681
37 *131:36 0.000128388
38 *131:37 0.000178516
39 *131:38 0.000430524
40 *131:39 0.000444889
41 *131:40 0.000219226
42 *131:41 0.000281155
43 *131:42 0.000157177
44 *131:43 0.000344813
45 *131:44 0.000239551
46 *131:45 0.000417531
47 *131:46 0.000254512
48 *131:47 0.00100869
49 *131:48 0.000925481
50 *131:49 0.00038588
51 *131:50 0.000448227
52 *131:51 3.48687e-05
53 *131:52 0.000674486
54 *131:53 0.000342727
55 *131:54 0.000843108
56 *131:55 0.000432849
57 *131:56 0.000402749
58 *131:57 0.000497103
59 *131:58 0.000362277
60 *131:59 0.000516832
61 *131:60 0.000722766
62 *131:61 0.000784218
63 *131:62 0.000703335
64 *131:63 0.000806928
65 *131:64 0.000737667
66 *131:65 0.000350654
67 *131:66 0.00038904
68 *131:67 0.000531554
69 *131:68 0.00046277
70 *131:69 0.0004251
71 *131:70 0.000323117
72 *131:71 0.000444114
73 *131:72 0.000374615
74 *131:73 0.000213325
75 *131:74 0.000245392
76 *131:75 0.000227332
77 *131:76 0.000640333
78 *131:77 0.000661254
79 *131:78 0.000383377
80 *131:79 0.000571311
81 *131:79 *130:7 8.70228e-06
82 *131:63 *130:5 3.42131e-05
83 *131:62 *130:5 2.58684e-05
84 *131:39 *130:2 5.126e-06
85 *131:38 *130:2 5.47171e-05
86 *131:79 *132:3 0.000327587
87 *131:77 *45:5 0.000102878
88 *131:76 *431:CP 2.94447e-05
89 *131:72 *504:CP 4.17829e-05
90 *131:71 *477:CP 2.0206e-05
91 *131:70 *476:CP 1.9908e-05
92 *131:66 *503:CP 4.23193e-05
93 *131:64 *485:CP 2.0206e-05
94 *131:60 *448:CP 1.82986e-05
95 *131:59 *40:160 0.000157535
96 *131:59 *40:159 0.000119328
97 *131:57 *447:CP 4.1306e-05
98 *131:56 *446:CP 1.90735e-05
99 *131:54 *484:CP 4.24385e-05
100 *131:54 *450:CP 4.23193e-05
101 *131:53 *40:153 3.57628e-07
102 *131:53 *493:CP 1.91331e-05
103 *131:52 *501:CP 4.17233e-05
104 *131:50 *453:CP 2.28286e-05
105 *131:72 *46:3 9.75132e-05
106 *131:71 *43:4 0.000413418
107 *131:70 *43:3 0.000413418
108 *131:68 *160:11 0.000283241
109 *131:64 *184:5 0.000313282
110 *131:63 *183:4 0.00056088
111 *131:62 *183:3 0.00056088
112 *131:61 *319:8 0.000132203
113 *131:61 *537:A2 8.40425e-05
114 *131:60 *161:9 0.000278533
115 *131:59 *161:8 0.000278533
116 *131:60 *251:13 0.000101209
117 *131:57 *447:D 0.000105619
118 *131:56 *51:3 0.000273943
119 *131:55 *454:Q 0.000329912
120 *131:54 *339:10 0.000329912
121 *493:CDN *218:3 0.000108242
122 *131:52 *111 0.000290036
123 *131:50 *415:I 8.17776e-05
124 *131:48 *158:5 0.000340223
125 *131:48 *195:7 0.000408173
126 *131:47 *281:7 0.000271678
127 *131:47 *626:I 0.000108004
128 *131:47 *629:A1 8.16584e-05
129 *131:47 *81:2 0.00039053
130 *131:45 *189:2 0.000374675
131 *131:45 *637:A2 0.000161171
132 *131:43 *172:9 0.000225663
133 *131:42 *172:8 0.000225663
134 *131:43 *103:5 0.000180721
135 *131:42 *76:9 0.000308514
136 *131:42 *433:D 9.31025e-05
137 *131:39 *85:6 0.000352621
138 *131:38 *85:5 0.000352621
139 *131:39 *260:6 0.000124216
140 *131:38 *197:3 0.000203013
141 *131:36 *181:9 0.000153184
142 *404:I *499:D 0.000113487

*RES
1 *131:79 *131 13.5732
2 *475:CDN *131:79 4.31788
3 *131:78 *131:79 5.08499
4 *430:CDN *131:78 2.00689
5 *131:77 *131:78 7.89654
6 *131:76 *131:77 14.6956
7 *431:CDN *131:76 2.05886
8 *504:CDN *131:75 2.11716
9 *131:75 *131:76 3.65233
10 *131:74 *131:75 1.38319
11 *131:73 *131:74 2.2006
12 *429:CDN *131:73 7.40242
13 *477:CDN *131:72 2.05886
14 *131:72 *131:74 4.90332
15 *476:CDN *131:71 2.11716
16 *131:71 *131:72 6.62744
17 *487:CDN *131:70 2.05886
18 *131:70 *131:71 7.48968
19 *495:CDN *131:69 6.71268
20 *131:69 *131:70 3.29196
21 *486:CDN *131:68 5.24104
22 *131:68 *131:69 10.0403
23 *503:CDN *131:67 2.00689
24 *131:67 *131:68 5.71811
25 *131:66 *131:67 12.6883
26 *485:CDN *131:65 2.09415
27 *131:65 *131:66 0.917554
28 *131:64 *131:65 12.697
29 *435:CDN *131:64 7.40397
30 *131:63 *131:64 9.83632
31 *434:CDN *131:63 8.68618
32 *131:62 *131:63 15.437
33 *494:CDN *131:62 4.61614
34 *502:CDN *131:61 4.61304
35 *131:61 *131:62 10.2993
36 *131:60 *131:61 13.6178
37 *448:CDN *131:60 2.00784
38 *131:59 *131:60 15.7855
39 *451:CDN *131:59 7.60758
40 *131:58 *131:59 4.36711
41 *454:CDN *131:58 2.05886
42 *131:57 *131:58 7.26736
43 *447:CDN *131:57 2.11716
44 *131:56 *131:57 7.54201
45 *446:CDN *131:56 3.8265
46 *484:CDN *131:55 3.86655
47 *131:55 *131:56 3.89814
48 *131:54 *131:55 11.1415
49 *131:53 *131:54 11.6045
50 *450:CDN *131:54 3.86643
51 *493:CDN *131:53 6.93047
52 *131:52 *131:54 11.4095
53 *501:CDN *131:52 3.82018
54 *131:51 *131:50 3.96276
55 *131:50 *131:52 15.5182
56 *131:49 *131:50 1.23644
57 *449:CDN *131:49 8.11327
58 *453:CDN *131:51 5.12087
59 *131:48 *131:49 12.5521
60 *452:CDN *131:48 3.82245
61 *131:47 *131:48 28.6862
62 *474:CDN *131:46 11.4312
63 *483:CDN *131:46 8.11994
64 *131:45 *131:47 11.4615
65 *131:44 *131:45 4.54092
66 *131:46 *131:44 0.0145435
67 *492:CDN *131:43 12.8591
68 *131:43 *131:44 16.0778
69 *131:42 *131:43 14.002
70 *131:41 *131:42 4.63283
71 *131:40 *131:41 6.5788
72 *433:CDN *131:42 3.91233
73 *131:39 *131:41 5.85806
74 *500:CDN *131:40 4.85313
75 *131:38 *131:39 11.8451
76 *131:37 *131:38 4.97591
77 *131:36 *131:37 5.64611
78 *482:CDN *131:37 8.11541
79 *404:I *131:36 6.00779
*END

*D_NET *132 0.00215721

*CONN
*P *132 I *C 0 2 *L 0
*I *431:D I *C 15.51 5.22 *L 0.000567 *D DFCNQD1BWP

*CAP
1 *431:D 0.000252068
2 *132 0.000202894
3 *132:2 0.000533462
4 *132:3 0.000484288
5 *132:3 *131:79 0.000327587
6 *132:2 *133:2 0.000356913

*RES
1 *132:3 *132 11.3267
2 *132:2 *132:3 12.1791
3 *431:D *132:2 11.1406
*END

*D_NET *133 0.00209117

*CONN
*P *133 I *C 0 2.5 *L 0
*I *429:D I *C 18.59 2.7 *L 0.000567 *D DFCNQD1BWP

*CAP
1 *429:D 0.000116408
2 *133 7.93934e-05
3 *133:2 0.00050807
4 *133:3 0.000471056
5 *133:2 *130:8 0.000149548
6 *133:2 *130:6 0.000139177
7 *429:D *130:6 4.76837e-06
8 *133:2 *132:2 0.000356913
9 *133:2 *430:D 0.000265837

*RES
1 *133:3 *133 2.15852
2 *133:2 *133:3 24.4406
3 *429:D *133:2 7.02763
*END

*D_NET *134 0.00105441

*CONN
*P *134 I *C 0 3 *L 0
*I *430:D I *C 5.85 3.82 *L 0.000567 *D DFCNQD1BWP

*CAP
1 *134 0.000246048
2 *430:D 0.000246048
3 *430:D *130:7 6.67572e-06
4 *430:D *130:8 0.000289798
5 *430:D *133:2 0.000265837

*RES
1 *430:D *134 15.095
*END

*D_NET *135 0.00182462

*CONN
*I *403:Z O *C 15.51 2.84 *L 0 *D CKBD8BWP
*P *135 O *C 0 0.1 *L 0.1

*CAP
1 *403:Z 0.000160098
2 *135 4.85182e-05
3 *135:2 0.000290334
4 *135:3 0.000703692
5 *135:4 0.000621974

*RES
1 *135 *135:4 8.53956
2 *135:4 *135:3 18.9923
3 *135:3 *135:2 10.0851
4 *135:2 *403:Z 4.81939
*END

*D_NET *136 0.000692248

*CONN
*I *402:Z O *C 3.89 2.84 *L 0 *D CKBD8BWP
*P *136 O *C 1.2 0 *L 0.1

*CAP
1 *402:Z 4.32134e-05
2 *136 9.04202e-05
3 *136:2 0.000255704
4 *136:3 0.000302911

*RES
1 *136 *136:3 2.80738
2 *136:3 *136:2 7.74515
3 *136:2 *402:Z 2.37083
*END

*D_NET *137 0.00162911

*CONN
*I *401:Z O *C 11.17 2.84 *L 0 *D CKBD8BWP
*P *137 O *C 0 3.5 *L 0.1

*CAP
1 *401:Z 8.91089e-05
2 *137 0.00025183
3 *137:2 0.000116289
4 *137:3 0.000279009
5 *137 *430:CP 0.000106513
6 *137:3 *40:181 0.000106513
7 *137 *130:7 7.33137e-06
8 *137 *130:8 0.00056237
9 *137:3 *130:8 7.98702e-06
10 *137 *138 0.000102162

*RES
1 *137 *137:3 15.6108
2 *137:2 *401:Z 4.98486
3 *137:3 *137:2 2.17307
*END

*D_NET *138 0.000649929

*CONN
*I *400:Z O *C 3.47 5.36 *L 0 *D CKBD8BWP
*P *138 O *C 0 4 *L 0.1

*CAP
1 *400:Z 0.000114322
2 *138 0.000135481
3 *138:2 0.000138402
4 *138:3 0.000159562
5 *138 *137 0.000102162

*RES
1 *138 *138:3 4.40586
2 *138:2 *400:Z 5.59616
3 *138:3 *138:2 2.15352
*END

*D_NET *139 0.00135398

*CONN
*I *399:Z O *C 12.43 3.68 *L 0 *D CKBD8BWP
*P *139 O *C 0 4.5 *L 0.1

*CAP
1 *399:Z 9.2566e-05
2 *139 0.000433683
3 *139:2 0.000119805
4 *139:3 0.000460923
5 *139 *430:CP 7.30157e-05
6 *139 *40:181 5.99623e-05
7 *139:3 *40:181 2.20537e-06
8 *139 *140 0.000111818

*RES
1 *139 *139:3 17.4559
2 *139:2 *399:Z 4.77695
3 *139:3 *139:2 2.17307
*END

*D_NET *140 0.00132072

*CONN
*I *398:Z O *C 8.51 5.36 *L 0 *D CKBD8BWP
*P *140 O *C 0 5 *L 0.1

*CAP
1 *398:Z 4.59552e-05
2 *140 0.000157237
3 *140:2 0.000378489
4 *140:3 0.000489771
5 *140 *139 0.000111818
6 *140:3 *400:I 0.000137448

*RES
1 *140 *140:3 5.22983
2 *140:3 *140:2 10.9773
3 *140:2 *398:Z 2.78914
*END

*D_NET *141 0.00398266

*CONN
*I *596:A2 I *C 54.15 2.7 *L 0.000446 *D OAI21D0BWP
*I *429:Q O *C 20.97 2.98 *L 0 *D DFCNQD1BWP

*CAP
1 *596:A2 9.18508e-05
2 *429:Q 0.000161707
3 *141:2 0.000136852
4 *141:3 0.000413954
5 *141:4 0.000693679
6 *141:5 0.000377774
7 *141:6 0.000846565
8 *141:4 *58:2 0.000184178
9 *141:3 *312:17 0.00070715
10 *141:3 *184:5 0.000368953

*RES
1 *141:6 *429:Q 8.11732
2 *141:5 *141:4 0.255108
3 *141:4 *141:6 26.1036
4 *141:3 *141:5 20.2614
5 *141:2 *141:3 3.05378
6 *596:A2 *141:2 6.99782
*END

*D_NET *142 8.22544e-05

*CONN
*I *391:I I *C 8.51 3.82 *L 0.000464 *D DEL125D1BWP
*I *430:Q O *C 8.23 3.54 *L 0 *D DFCNQD1BWP

*CAP
1 *430:Q 4.11272e-05
2 *391:I 4.11272e-05

*RES
1 *391:I *430:Q 4.42135
*END

*D_NET *143 0.0225706

*CONN
*I *373:I I *C 18.03 5.22 *L 0.000497 *D BUFFD1BWP
*I *571:A1 I *C 204.37 3.96 *L 0.000441 *D OAI21D0BWP
*I *431:Q O *C 17.89 5.5 *L 0 *D DFCNQD1BWP

*CAP
1 *571:A1 0.000258088
2 *373:I 1.16229e-05
3 *431:Q 2.34842e-05
4 *143:3 0.000693202
5 *143:4 0.000598669
6 *143:5 0.000386834
7 *143:6 0.00057137
8 *143:7 0.000230491
9 *143:8 0.00122094
10 *143:9 0.00033319
11 *143:10 0.000952244
12 *143:11 0.000891507
13 *143:12 0.000926316
14 *143:13 0.000330985
15 *143:14 0.000793278
16 *143:14 *268:25 0.000386477
17 *143:12 *268:41 0.000514805
18 *143:12 *268:25 1.10269e-05
19 *143:12 *268:24 0.000386477
20 *143:12 *268:22 0.000165045
21 *143:11 *268:42 0.0012013
22 *143:11 *268:22 0.000194371
23 *143:11 *268:40 4.41074e-05
24 *143:3 *268:40 0.000686496
25 *143:3 *268:20 4.27961e-05
26 *571:A1 *268:20 4.17233e-06
27 *143:14 *198:10 0.001196
28 *143:14 *198:9 1.10269e-05
29 *143:13 *198:9 0.000496417
30 *143:12 *198:8 0.00140074
31 *143:12 *198:10 2.31862e-05
32 *143:11 *198:7 0.00140229
33 *143:11 *198:8 2.3067e-05
34 *143:3 *198:7 2.31862e-05
35 *143:3 *198:6 0.000701129
36 *571:A1 *198:6 4.11272e-06
37 *143:14 *97:5 0.000508606
38 *143:13 *97:8 0.000508606
39 *143:12 *97:6 1.27554e-05
40 *143:12 *97:5 0.000317752
41 *143:10 *97:10 4.23193e-06
42 *143:10 *97:11 0.000293612
43 *143:10 *97:9 4.4167e-05
44 *143:8 *97:9 0.00074774
45 *143:8 *97:8 4.47035e-05
46 *143:4 *97:8 0.000752389
47 *143:4 *97:5 4.16636e-05
48 *143:8 *18:16 0.00101268
49 *143:4 *18:9 0.00101268
50 *571:A1 *15:5 0.000128567

*RES
1 *143:14 *143:13 29.4739
2 *143:12 *143:14 40.9291
3 *143:11 *143:12 40.8272
4 *143:10 *143:9 18.442
5 *143:8 *143:10 40.9431
6 *143:7 *431:Q 4.31061
7 *373:I *143:7 3.87704
8 *143:6 *143:7 7.86638
9 *143:9 *143:5 0.255108
10 *143:5 *143:6 17.9514
11 *143:4 *143:8 40.8273
12 *143:13 *143:4 0.255108
13 *143:3 *143:11 40.7835
14 *571:A1 *143:3 17.6313
*END

*D_NET *144 0.000161409

*CONN
*I *570:A1 I *C 207.31 5.22 *L 0.000423 *D CKND2D0BWP
*I *432:Q O *C 206.61 5.5 *L 0 *D DFCNQD1BWP

*CAP
1 *570:A1 6.07967e-05
2 *432:Q 1.9908e-05
3 *144:2 8.07047e-05

*RES
1 *144:2 *432:Q 2.03228
2 *570:A1 *144:2 2.97403
*END

*D_NET *145 0.000922263

*CONN
*I *526:ZN O *C 130.73 5.36 *L 0 *D NR2D0BWP
*I *433:D I *C 131.71 2.7 *L 0.000567 *D DFCNQD1BWP

*CAP
1 *526:ZN 0.000358224
2 *433:D 0.000358224
3 *433:D *40:143 7.51019e-06
4 *433:D *433:CP 0.000101626
5 *433:D *500:CP 3.57628e-06
6 *433:D *131:42 9.31025e-05

*RES
1 *433:D *526:ZN 20.4574
*END

*D_NET *146 0.000562072

*CONN
*I *602:ZN O *C 266.67 2.98 *L 0 *D AOI211D0BWP
*I *436:D I *C 266.67 5.22 *L 0.000567 *D DFCNQD1BWP

*CAP
1 *436:D 0.000266075
2 *602:ZN 1.49608e-05
3 *146:2 0.000281036

*RES
1 *146:2 *602:ZN 3.89421
2 *436:D *146:2 9.91488
*END

*D_NET *147 0.00038588

*CONN
*I *588:Z O *C 263.59 3.54 *L 0 *D OA211D0BWP
*I *437:D I *C 263.73 2.7 *L 0.000567 *D DFCNQD1BWP

*CAP
1 *437:D 6.67572e-05
2 *588:Z 0.000126183
3 *147:2 0.00019294

*RES
1 *147:2 *588:Z 5.73516
2 *437:D *147:2 4.28534
*END

*D_NET *148 0.000366569

*CONN
*I *603:ZN O *C 275.49 3.54 *L 0 *D AOI211D0BWP
*I *438:D I *C 274.93 2.7 *L 0.000567 *D DFCNQD1BWP

*CAP
1 *603:ZN 7.87377e-05
2 *438:D 0.000104547
3 *148:2 0.000183284

*RES
1 *438:D *148:2 5.03242
2 *148:2 *603:ZN 4.57251
*END

*D_NET *149 0.000795126

*CONN
*I *592:Z O *C 281.23 2.98 *L 0 *D OA211D0BWP
*I *439:D I *C 285.15 2.7 *L 0.000567 *D DFCNQD1BWP

*CAP
1 *439:D 9.00626e-05
2 *592:Z 0.000193059
3 *149:2 0.000283122
4 *149:2 *49:43 0.000102282
5 *149:2 *57:2 0.0001266

*RES
1 *149:2 *592:Z 14.8574
2 *439:D *149:2 3.70502
*END

*D_NET *150 0.000444651

*CONN
*I *605:ZN O *C 279.55 3.54 *L 0 *D AOI211D0BWP
*I *440:D I *C 279.41 5.22 *L 0.000567 *D DFCNQD1BWP

*CAP
1 *440:D 0.000158846
2 *605:ZN 6.34789e-05
3 *150:2 0.000222325

*RES
1 *150:2 *605:ZN 4.36258
2 *440:D *150:2 6.02722
*END

*D_NET *151 0.000931859

*CONN
*I *612:Z O *C 281.23 5.5 *L 0 *D OA211D0BWP
*I *441:D I *C 285.43 5.22 *L 0.000567 *D DFCNQD1BWP

*CAP
1 *441:D 9.19104e-05
2 *612:Z 0.000197649
3 *151:2 0.000289559
4 *151:2 *73:2 0.000267327
5 *151:2 *65:2 8.54135e-05

*RES
1 *151:2 *612:Z 17.8363
2 *441:D *151:2 3.70502
*END

*D_NET *152 0.000363946

*CONN
*I *618:ZN O *C 272.27 2.98 *L 0 *D AOI211D0BWP
*I *442:D I *C 272.27 3.82 *L 0.000567 *D DFCNQD1BWP

*CAP
1 *618:ZN 7.35521e-05
2 *442:D 0.000108421
3 *152:2 0.000181973

*RES
1 *442:D *152:2 5.25665
2 *152:2 *618:ZN 6.37138
*END

*D_NET *153 0.000645041

*CONN
*I *620:Z O *C 257.99 2.98 *L 0 *D OA211D0BWP
*I *443:D I *C 257.01 5.22 *L 0.000567 *D DFCNQD1BWP

*CAP
1 *620:Z 0.000194967
2 *443:D 3.88026e-05
3 *153:2 0.000234663
4 *153:3 7.84993e-05
5 *443:D *49:51 9.81092e-05

*RES
1 *443:D *153:3 3.38709
2 *153:3 *153:2 2.29609
3 *153:2 *620:Z 9.305
*END

*D_NET *154 0.000563979

*CONN
*I *623:ZN O *C 261.35 2.98 *L 0 *D AOI211D0BWP
*I *444:D I *C 260.79 5.22 *L 0.000567 *D DFCNQD1BWP

*CAP
1 *623:ZN 2.8193e-05
2 *444:D 0.000160277
3 *154:2 4.71473e-05
4 *154:3 0.000179231
5 *444:D *622:A2 0.000149131

*RES
1 *444:D *154:3 12.2437
2 *154:2 *623:ZN 4.37725
3 *154:3 *154:2 4.00627
*END

*D_NET *155 0.000359774

*CONN
*I *362:I I *C 254.07 3.82 *L 0.000388 *D DEL100D1BWP
*I *625:ZN O *C 254.07 5.5 *L 0 *D AOI21D0BWP

*CAP
1 *625:ZN 7.86185e-05
2 *362:I 0.000101268
3 *155:2 0.000179887

*RES
1 *362:I *155:2 5.36644
2 *155:2 *625:ZN 6.47771
*END

*D_NET *156 0.00159478

*CONN
*I *555:A1 I *C 74.31 3.82 *L 0.000451 *D AN3D0BWP
*I *554:ZN O *C 78.37 3.68 *L 0 *D NR2D0BWP
*I *451:D I *C 73.61 5.22 *L 0.000567 *D DFCNQD1BWP

*CAP
1 *554:ZN 8.36253e-05
2 *555:A1 6.62804e-05
3 *451:D 0.000165641
4 *156:3 0.000136673
5 *156:4 0.00028497
6 *156:4 *311:14 0.000428319
7 *156:4 *160:7 0.000429273

*RES
1 *451:D *156:4 6.32393
2 *555:A1 *156:4 4.40907
3 *156:4 *156:3 15.6895
4 *156:3 *554:ZN 4.6891
*END

*D_NET *157 0.00111806

*CONN
*I *560:A2 I *C 88.31 5.36 *L 0.000441 *D CKND2D0BWP
*I *557:A1 I *C 89.85 3.82 *L 0.000423 *D CKND2D0BWP
*I *556:ZN O *C 88.31 3.68 *L 0 *D NR2D0BWP
*I *450:D I *C 90.69 2.7 *L 0.000567 *D DFCNQD1BWP

*CAP
1 *450:D 0.000233054
2 *557:A1 1.2815e-05
3 *556:ZN 1.54972e-06
4 *560:A2 9.53674e-05
5 *157:4 0.000316441
6 *157:5 0.000167489
7 *560:A2 *312:6 0.000131726
8 *157:4 *557:A2 0.000159621

*RES
1 *560:A2 *157:5 14.1634
2 *157:5 *556:ZN 3.94011
3 *557:A1 *157:4 3.86655
4 *157:4 *157:5 3.14891
5 *450:D *157:4 15.5789
*END

*D_NET *158 0.00729907

*CONN
*I *547:I I *C 128.49 5.22 *L 0.000464 *D INVD0BWP
*I *522:ZN O *C 89.29 5.36 *L 0 *D NR2XD0BWP
*I *449:D I *C 102.17 3.82 *L 0.000567 *D DFCNQD1BWP

*CAP
1 *547:I 9.86457e-05
2 *449:D 0.000114143
3 *522:ZN 0.00088495
4 *158:3 0.000263393
5 *158:4 0.0005458
6 *158:5 0.000787973
7 *158:6 0.00059098
8 *158:7 0.000319481
9 *158:8 0.000906229
10 *158:8 *190:3 0.000171661
11 *158:8 *195:8 0.000274777
12 *158:5 *131:48 0.000340223
13 *158:5 *182:15 0.000576139
14 *158:4 *286:7 0.000118732
15 *158:3 *82:9 0.0006001
16 *158:3 *83:9 0.000705838

*RES
1 *158:8 *522:ZN 23.1398
2 *158:7 *158:8 3.91471
3 *449:D *158:7 9.04667
4 *158:6 *158:7 8.21507
5 *158:5 *158:6 14.3112
6 *158:4 *158:5 11.3435
7 *158:3 *158:4 14.8311
8 *547:I *158:3 13.0575
*END

*D_NET *159 0.00143743

*CONN
*I *646:B2 I *C 119.11 5.22 *L 0.000459 *D AOI32D0BWP
*I *646:A2 I *C 118.41 5.36 *L 0.000438 *D AOI32D0BWP
*I *638:B2 I *C 121.07 5.22 *L 0.000459 *D AOI32D0BWP
*I *638:A2 I *C 120.37 5.36 *L 0.000438 *D AOI32D0BWP
*I *474:Q O *C 123.17 5.5 *L 0 *D DFCNQD1BWP

*CAP
1 *474:Q 9.03606e-05
2 *638:B2 1.22786e-05
3 *638:A2 7.93934e-05
4 *646:B2 3.27826e-05
5 *646:A2 8.97646e-05
6 *159:5 0.000172496
7 *159:6 0.000172257
8 *159:7 0.000145555
9 *159:7 *268:29 0.000167489
10 *159:7 *253:6 0.000216842
11 *159:5 *195:3 0.000258207

*RES
1 *646:A2 *159:7 9.15217
2 *159:7 *159:6 6.49369
3 *646:B2 *159:7 8.12089
4 *159:6 *159:5 10.144
5 *638:A2 *159:6 12.4924
6 *638:B2 *159:5 3.86631
7 *159:5 *474:Q 7.28452
*END

*D_NET *160 0.0144331

*CONN
*I *369:Z O *C 116.45 3.54 *L 0 *D BUFFD1BWP
*I *477:D I *C 25.03 5.22 *L 0.000567 *D DFCNQD1BWP

*CAP
1 *369:Z 8.40425e-06
2 *477:D 0.000545263
3 *160:2 0.000372767
4 *160:3 0.000579417
5 *160:4 0.00034368
6 *160:5 0.000135005
7 *160:6 0.000236511
8 *160:7 0.000271559
9 *160:8 0.000576794
10 *160:9 0.000770748
11 *160:10 0.00112945
12 *160:11 0.00143933
13 *160:11 *131:68 0.000283241
14 *160:11 *487:D 0.000109673
15 *160:11 *182:12 0.000102758
16 *160:11 *161:14 0.000397563
17 *160:10 *319:12 0.000137925
18 *160:10 *130:5 2.86102e-06
19 *160:9 *130:5 0.000179887
20 *160:9 *253:12 0.000102162
21 *160:9 *261:7 0.000122905
22 *160:7 *311:13 0.000701606
23 *160:6 *311:12 0.000701606
24 *160:7 *331:7 0.000507951
25 *160:7 *156:4 0.000429273
26 *160:5 *249:8 0.000808477
27 *160:5 *251:7 0.00121701
28 *160:3 *260:16 0.000739634
29 *160:2 *260:6 0.000739634
30 *160:3 *407:I 0.000578582
31 *160:3 *127:2 0.000161409

*RES
1 *477:D *160:11 14.1462
2 *160:11 *160:10 29.1542
3 *160:10 *160:9 9.76849
4 *160:9 *160:8 25.1273
5 *160:8 *160:7 3.17144
6 *160:7 *160:6 28.5561
7 *160:5 *160:4 14.1544
8 *160:6 *160:5 0.153184
9 *160:4 *160:3 19.6321
10 *160:3 *160:2 26.9881
11 *160:2 *369:Z 3.86631
*END

*D_NET *161 0.0122513

*CONN
*I *639:ZN O *C 112.95 5.36 *L 0 *D AOI31D1BWP
*I *476:D I *C 29.37 5.22 *L 0.000567 *D DFCNQD1BWP

*CAP
1 *639:ZN 9.25064e-05
2 *476:D 0.000107646
3 *161:2 0.000248969
4 *161:3 0.000392854
5 *161:4 0.000522256
6 *161:5 0.000290692
7 *161:6 0.000105739
8 *161:7 0.000105619
9 *161:8 0.000176132
10 *161:9 0.000178456
11 *161:10 0.000381649
12 *161:11 0.00072366
13 *161:12 0.00104308
14 *161:13 0.000134826
15 *161:14 0.00104922
16 *161:15 0.000382364
17 *161:14 *160:11 0.000397563
18 *476:D *476:CP 2.02656e-06
19 *161:9 *40:159 0.000130594
20 *161:9 *40:158 8.18372e-05
21 *161:7 *40:158 8.76188e-06
22 *161:7 *40:157 8.46386e-06
23 *161:5 *40:157 0.000127196
24 *161:5 *40:156 2.34246e-05
25 *161:5 *40:155 9.81092e-05
26 *161:5 *40:154 0.000103921
27 *161:5 *40:152 0.0001553
28 *161:4 *40:152 0.000103921
29 *161:4 *40:151 0.0001553
30 *161:12 *130:5 4.41074e-05
31 *161:11 *130:5 0.000369787
32 *161:11 *130:4 5.67436e-05
33 *161:9 *130:4 0.000616848
34 *161:7 *130:4 0.000566006
35 *161:5 *130:4 0.000486791
36 *161:5 *130:3 0.000313818
37 *161:4 *130:3 0.000249922
38 *161:11 *312:14 0.000287771
39 *161:9 *131:60 0.000278533
40 *161:8 *131:59 0.000278533
41 *161:7 *339:10 0.000861526
42 *161:4 *290:2 0.000181079
43 *161:3 *629:A1 8.40425e-05
44 *161:2 *286:7 0.000100911
45 *161:2 *190:2 0.000142813

*RES
1 *161:15 *161:14 12.3894
2 *161:13 *161:15 2.18439
3 *476:D *161:13 5.43952
4 *161:14 *161:12 24.4761
5 *161:12 *161:11 10.6409
6 *161:11 *161:10 20.1892
7 *161:10 *161:9 0.255108
8 *161:9 *161:8 15.1954
9 *161:8 *161:7 0.153184
10 *161:7 *161:6 11.166
11 *161:5 *161:4 22.3324
12 *161:6 *161:5 0.153184
13 *161:4 *161:3 16.6851
14 *161:3 *161:2 11.5442
15 *161:2 *639:ZN 7.57658
*END

*D_NET *162 0.00241631

*CONN
*I *370:I I *C 203.25 2.7 *L 0.000388 *D DEL100D1BWP
*I *518:A1 I *C 203.11 3.82 *L 0.000423 *D CKND2D0BWP
*I *508:A2 I *C 196.53 5.36 *L 0.000441 *D CKND2D0BWP
*I *456:Q O *C 204.51 2.98 *L 0 *D DFCNQD1BWP

*CAP
1 *456:Q 6.79493e-05
2 *370:I 7.689e-06
3 *518:A1 2.34246e-05
4 *508:A2 0.000126958
5 *162:4 0.000250757
6 *162:5 0.000474274
7 *162:6 0.000402689
8 *162:6 *84:6 0.000445068
9 *162:6 *99:11 0.000339031
10 *162:5 *516:A2 0.000137806
11 *162:4 *63:3 0.000140667

*RES
1 *162:6 *162:5 17.9576
2 *508:A2 *162:6 5.56958
3 *162:5 *162:4 8.82232
4 *518:A1 *162:5 4.04167
5 *370:I *162:4 3.85571
6 *162:4 *456:Q 5.49328
*END

*D_NET *163 0.000608265

*CONN
*I *366:I I *C 207.31 4.1 *L 0.000884 *D DEL050D1BWP
*I *571:ZN O *C 204.23 3.68 *L 0 *D OAI21D0BWP

*CAP
1 *366:I 9.08375e-05
2 *571:ZN 9.50098e-05
3 *163:2 0.000185847
4 *163:2 *571:A2 9.65595e-05
5 *366:I *49:69 0.000140011

*RES
1 *163:2 *571:ZN 6.67667
2 *366:I *163:2 7.51352
*END

*D_NET *164 0.000610709

*CONN
*I *365:I I *C 213.47 5.22 *L 0.000388 *D DEL100D1BWP
*I *524:ZN O *C 211.65 5.36 *L 0 *D NR2D0BWP

*CAP
1 *524:ZN 0.000183582
2 *365:I 0.000183582
3 *365:I *524:A2 0.000155985
4 *365:I *83:12 8.75592e-05

*RES
1 *365:I *524:ZN 14.5804
*END

*D_NET *165 0.000383019

*CONN
*I *364:I I *C 217.81 4.1 *L 0.000884 *D DEL050D1BWP
*I *565:ZN O *C 217.25 5.5 *L 0 *D AOI211D0BWP

*CAP
1 *565:ZN 7.25985e-05
2 *364:I 0.000118911
3 *165:2 0.00019151

*RES
1 *364:I *165:2 7.62427
2 *165:2 *565:ZN 6.46532
*END

*D_NET *166 0.000652194

*CONN
*I *361:I I *C 224.53 2.42 *L 0.000884 *D DEL050D1BWP
*I *575:Z O *C 222.99 3.54 *L 0 *D OA211D0BWP

*CAP
1 *361:I 7.08699e-05
2 *575:Z 0.000184417
3 *166:2 0.000255287
4 *361:I *240:9 0.000141621

*RES
1 *166:2 *575:Z 8.12924
2 *361:I *166:2 4.82202
*END

*D_NET *167 0.000281215

*CONN
*I *363:I I *C 226.21 4.1 *L 0.000884 *D DEL050D1BWP
*I *569:ZN O *C 225.23 3.54 *L 0 *D AOI211D0BWP

*CAP
1 *363:I 9.89437e-05
2 *569:ZN 4.16636e-05
3 *167:2 0.000140607

*RES
1 *167:2 *569:ZN 4.38821
2 *363:I *167:2 3.73876
*END

*D_NET *168 0.000534236

*CONN
*I *360:I I *C 230.83 4.1 *L 0.000884 *D DEL050D1BWP
*I *574:Z O *C 230.27 2.98 *L 0 *D OA211D0BWP

*CAP
1 *574:Z 0.000225723
2 *360:I 0.000225723
3 *360:I *75:13 8.27908e-05

*RES
1 *360:I *574:Z 11.6484
*END

*D_NET *169 0.000596166

*CONN
*I *357:Z O *C 232.93 3.54 *L 0 *D DEL050D1BWP
*I *461:D I *C 235.17 5.22 *L 0.000567 *D DFCNQD1BWP

*CAP
1 *461:D 7.08699e-05
2 *357:Z 0.000172615
3 *169:2 0.000243485
4 *461:D *49:59 0.000109196

*RES
1 *169:2 *357:Z 10.2692
2 *461:D *169:2 3.70109
*END

*D_NET *170 0.000530124

*CONN
*I *359:I I *C 236.85 3.82 *L 0.000388 *D DEL100D1BWP
*I *614:ZN O *C 233.63 3.54 *L 0 *D AOI21D0BWP

*CAP
1 *614:ZN 0.000265062
2 *359:I 0.000265062

*RES
1 *359:I *614:ZN 9.43112
*END

*D_NET *171 0.0157454

*CONN
*I *535:ZN O *C 179.59 3.68 *L 0 *D NR2D2BWP
*I *485:D I *C 48.13 2.7 *L 0.000567 *D DFCNQD1BWP

*CAP
1 *535:ZN 6.06775e-05
2 *485:D 0.000385463
3 *171:2 0.000424564
4 *171:3 0.000435174
5 *171:4 0.000550509
6 *171:5 0.00079906
7 *171:6 0.00108343
8 *171:7 0.00136119
9 *171:8 0.00118089
10 *171:9 0.00107342
11 *171:10 0.000323772
12 *171:11 0.000559688
13 *171:11 *196:9 2.52724e-05
14 *171:10 *196:9 2.33054e-05
15 *171:9 *196:5 0.00144151
16 *171:9 *196:4 7.44462e-05
17 *171:9 *196:3 0.000662565
18 *171:9 *196:9 0.000466287
19 *171:8 *196:7 0.00144419
20 *171:7 *196:6 0.000104785
21 *171:7 *196:7 0.000304043
22 *171:7 *181:7 0.000756681
23 *171:6 *181:3 0.000756681
24 *171:5 *355:6 0.000237584
25 *171:5 *174:7 0.000596404
26 *171:5 *37:2 9.15527e-05
27 *171:3 *354:4 8.66652e-05
28 *171:3 *38:4 0.000435591

*RES
1 *171:11 *171:10 0.54121
2 *171:9 *171:11 42.4871
3 *171:8 *171:9 41.9234
4 *171:7 *171:8 41.7686
5 *485:D *171:6 13.7806
6 *171:6 *171:7 40.827
7 *171:5 *171:4 15.7534
8 *171:10 *171:5 9.95243
9 *171:3 *171:2 11.3157
10 *171:4 *171:3 8.29971
11 *171:2 *535:ZN 5.23949
*END

*D_NET *172 0.0160506

*CONN
*I *532:ZN O *C 177.49 2.98 *L 0 *D NR2XD1BWP
*I *484:D I *C 88.73 2.7 *L 0.000567 *D DFCNQD1BWP

*CAP
1 *532:ZN 3.0756e-05
2 *484:D 0.000100255
3 *172:2 0.000347376
4 *172:3 0.000771821
5 *172:4 0.000683784
6 *172:5 0.000312269
7 *172:6 0.000332057
8 *172:7 0.000339687
9 *172:8 0.000439882
10 *172:9 0.000728726
11 *172:10 0.00076133
12 *172:11 0.000700235
13 *172:12 0.000644207
14 *172:13 0.000440776
15 *172:14 0.000501573
16 *172:15 0.000486195
17 *484:D *40:157 3.86238e-05
18 *484:D *484:CP 6.97374e-06
19 *484:D *40:156 6.4373e-06
20 *172:15 *40:156 1.01924e-05
21 *172:15 *40:155 6.1512e-05
22 *172:15 *40:154 0.000129342
23 *172:15 *40:152 9.39965e-05
24 *172:14 *40:152 4.94719e-06
25 *172:14 *40:151 9.39965e-05
26 *172:10 *483:CP 1.49608e-05
27 *172:10 *40:145 9.53674e-07
28 *172:9 *433:CP 4.1306e-05
29 *172:7 *491:CP 4.11868e-05
30 *172:4 *490:CP 4.09484e-05
31 *172:3 *498:CP 4.17829e-05
32 *172:13 *338:4 0.000359178
33 *172:13 *79:2 0.000448108
34 *172:12 *339:5 0.000380874
35 *172:12 *282:7 0.000205398
36 *172:12 *103:6 0.000134587
37 *172:11 *644:B1 0.000239372
38 *172:11 *637:A2 0.000208855
39 *172:11 *284:2 0.000115514
40 *172:10 *173:10 0.000221729
41 *172:9 *131:43 0.000225663
42 *172:8 *131:42 0.000225663
43 *172:9 *552:A2 0.000132799
44 *172:9 *416:I 0.000217199
45 *172:9 *424:I 0.000329852
46 *172:7 *491:CDN 9.54866e-05
47 *172:7 *665:A1 0.000136256
48 *172:7 *181:9 0.000573754
49 *172:7 *85:6 0.00027895
50 *172:7 *665:A2 0.000103354
51 *172:7 *491:D 0.000111818
52 *172:6 *650:A2 0.00010711
53 *172:5 *296:4 8.10623e-05
54 *172:5 *661:A1 0.000124633
55 *172:5 *661:A2 0.00012356
56 *172:4 *660:A3 0.000130773
57 *172:4 *76:6 0.000329375
58 *172:4 *77:5 0.000536323
59 *172:4 *194:3 0.000528097
60 *172:4 *417:I 0.000103116
61 *172:3 *71:6 9.52482e-05
62 *172:3 *425:I 0.000277638
63 *172:3 *117:2 0.000536144
64 *172:3 *109:2 8.50558e-05

*RES
1 *484:D *172:15 8.08179
2 *172:15 *172:14 18.0308
3 *172:14 *172:13 5.46825
4 *172:13 *172:12 15.6265
5 *172:12 *172:11 30.5036
6 *172:11 *172:10 14.0799
7 *172:10 *172:9 9.83226
8 *172:9 *172:8 20.0694
9 *172:8 *172:7 2.91216
10 *172:7 *172:6 17.5049
11 *172:6 *172:5 10.4861
12 *172:5 *172:4 12.7391
13 *172:4 *172:3 28.5231
14 *172:3 *172:2 20.7949
15 *172:2 *532:ZN 4.40705
*END

*D_NET *173 0.0102261

*CONN
*I *673:ZN O *C 191.07 2.98 *L 0 *D NR3D1BWP
*I *483:D I *C 125.97 2.7 *L 0.000567 *D DFCNQD1BWP

*CAP
1 *673:ZN 8.39233e-05
2 *483:D 0.000132143
3 *173:2 0.000249445
4 *173:3 0.00074327
5 *173:4 0.00067091
6 *173:5 0.000353873
7 *173:6 0.000358164
8 *173:7 0.000277996
9 *173:8 0.000422835
10 *173:9 0.000593066
11 *173:10 0.000482917
12 *173:10 *97:4 0.000349283
13 *173:10 *172:10 0.000221729
14 *173:10 *189:2 0.000158668
15 *173:10 *424:I 0.000140667
16 *173:8 *193:4 0.00159562
17 *173:8 *657:A2 0.000361741
18 *173:8 *491:D 0.000131071
19 *173:6 *70:3 0.00121045
20 *173:4 *347:14 0.000223637
21 *173:4 *90:7 0.000813603
22 *173:4 *194:2 0.000244856
23 *173:3 *21:7 0.000406265

*RES
1 *483:D *173:10 7.84719
2 *173:10 *173:9 14.897
3 *173:9 *173:8 6.97577
4 *173:8 *173:7 16.6854
5 *173:7 *173:6 3.88038
6 *173:6 *173:5 17.8794
7 *173:5 *173:4 3.37827
8 *173:4 *173:3 29.3685
9 *173:3 *173:2 11.929
10 *173:2 *673:ZN 6.89888
*END

*D_NET *174 0.0100439

*CONN
*I *519:B1 I *C 195.69 3.82 *L 0.000458 *D MOAI22D0BWP
*I *510:ZN O *C 191.91 5.5 *L 0 *D NR3D1BWP
*I *482:D I *C 139.97 3.82 *L 0.000567 *D DFCNQD1BWP

*CAP
1 *519:B1 0.000147045
2 *510:ZN 0.00018841
3 *482:D 9.79304e-05
4 *174:3 0.000325739
5 *174:4 0.000926793
6 *174:5 0.00132579
7 *174:6 0.000872016
8 *174:7 0.000835896
9 *174:8 0.000472546
10 *174:9 0.000254631
11 *174:10 0.000257671
12 *174:11 0.000200927
13 *174:10 *49:91 0.000341356
14 *174:9 *49:90 0.000341356
15 *174:10 *74:12 0.000460744
16 *174:10 *84:14 0.000665545
17 *174:8 *300:6 0.000390887
18 *174:8 *669:A3 0.000157654
19 *174:8 *307:5 0.000298858
20 *174:7 *353:4 0.000110388
21 *174:7 *171:5 0.000596404
22 *174:5 *234:7 0.000106692
23 *174:5 *38:4 0.000383258
24 *174:3 *250:15 0.000285327

*RES
1 *482:D *174:11 3.39055
2 *174:11 *174:10 5.08499
3 *174:10 *174:9 15.6642
4 *174:9 *174:8 5.08535
5 *174:8 *174:7 14.2946
6 *174:7 *174:6 13.8217
7 *174:6 *174:5 12.8218
8 *174:5 *174:4 24.5349
9 *174:4 *510:ZN 3.82197
10 *519:B1 *174:3 5.84078
11 *174:3 *510:ZN 14.5828
*END

*D_NET *175 0.000428081

*CONN
*I *536:ZN O *C 185.61 3.68 *L 0 *D NR2D0BWP
*I *481:D I *C 183.51 3.82 *L 0.000567 *D DFCNQD1BWP

*CAP
1 *536:ZN 0.00011766
2 *481:D 2.96235e-05
3 *175:2 0.000147283
4 *175:2 *214:5 0.000133514

*RES
1 *481:D *175:2 2.57277
2 *175:2 *536:ZN 7.7225
*END

*D_NET *176 0.00318289

*CONN
*I *533:ZN O *C 194.15 3.68 *L 0 *D NR2D0BWP
*I *480:D I *C 208.85 3.82 *L 0.000567 *D DFCNQD1BWP

*CAP
1 *480:D 0.000326633
2 *533:ZN 0.000101745
3 *176:2 0.000362754
4 *176:3 0.000137866
5 *176:3 *40:114 9.47416e-05
6 *176:3 *40:110 0.000253171
7 *176:3 *40:112 8.40425e-06
8 *176:2 *40:112 9.47416e-05
9 *176:2 *40:110 0.000127792
10 *176:2 *40:108 0.000253171
11 *176:2 *40:106 4.86374e-05
12 *480:D *40:106 8.52346e-06
13 *480:D *480:CP 4.47035e-05
14 *176:2 *91:5 0.000915408
15 *480:D *49:69 8.47578e-05
16 *480:D *228:11 0.000188708
17 *480:D *571:A2 0.00013113

*RES
1 *176:3 *533:ZN 13.2047
2 *176:2 *176:3 25.9727
3 *480:D *176:2 21.3958
*END

*D_NET *177 0.00516188

*CONN
*I *530:ZN O *C 200.73 2.84 *L 0 *D NR2D0BWP
*I *479:D I *C 242.87 2.7 *L 0.000567 *D DFCNQD1BWP

*CAP
1 *479:D 0.00012815
2 *530:ZN 0.000102878
3 *177:2 0.00106108
4 *177:3 0.000564694
5 *177:4 0.00139475
6 *177:4 *49:71 0.000248373
7 *177:3 *49:73 0.000248373
8 *177:4 *63:3 0.000102758
9 *177:2 *240:9 0.000101805
10 *177:2 *229:5 8.92878e-05
11 *177:2 *90:6 0.00111973

*RES
1 *177:4 *177:3 19.273
2 *177:3 *530:ZN 13.7782
3 *177:2 *177:4 40.6981
4 *479:D *177:2 7.68995
*END

*D_NET *178 0.00757754

*CONN
*I *527:ZN O *C 199.05 3.68 *L 0 *D NR2XD0BWP
*I *478:D I *C 242.73 5.22 *L 0.000567 *D DFCNQD1BWP

*CAP
1 *478:D 0.000127375
2 *527:ZN 0.00059998
3 *178:2 0.000850558
4 *178:3 0.00112277
5 *178:4 0.000992596
6 *178:5 0.000606239
7 *178:6 0.000599086
8 *178:7 0.00118583
9 *178:7 *222:7 0.000201344
10 *178:6 *49:68 0.000130892
11 *178:4 *228:7 0.000547647
12 *178:4 *225:6 0.000127316
13 *178:4 *565:B 9.94205e-05
14 *178:4 *513:A3 0.000386477

*RES
1 *178:7 *527:ZN 19.7339
2 *178:6 *178:7 14.2114
3 *178:5 *178:6 0.255108
4 *178:4 *178:5 26.925
5 *178:3 *178:4 8.70168
6 *178:2 *178:3 15.0317
7 *478:D *178:2 4.41074
*END

*D_NET *179 0.0021559

*CONN
*I *384:I I *C 175.11 5.22 *L 0.000464 *D DEL125D1BWP
*I *466:Q O *C 186.45 5.5 *L 0 *D DFCNQD1BWP

*CAP
1 *466:Q 2.61068e-05
2 *384:I 0.000180662
3 *179:2 0.000428498
4 *179:3 0.000487685
5 *179:4 0.000265956
6 *179:3 *83:6 0.000511408
7 *179:3 *351:3 0.000255585

*RES
1 *384:I *179:4 5.41031
2 *179:4 *179:3 4.80354
3 *179:3 *179:2 14.1177
4 *179:2 *466:Q 2.2192
*END

*D_NET *180 0.00270128

*CONN
*I *668:B2 I *C 160.27 5.22 *L 0.000459 *D AOI32D0BWP
*I *668:A2 I *C 159.57 5.36 *L 0.000438 *D AOI32D0BWP
*I *660:B2 I *C 160.55 2.7 *L 0.000459 *D AOI32D0BWP
*I *660:A2 I *C 161.25 2.84 *L 0.000438 *D AOI32D0BWP
*I *467:Q O *C 171.75 5.5 *L 0 *D DFCNQD1BWP

*CAP
1 *467:Q 9.50098e-05
2 *660:A2 0.000104129
3 *660:B2 5.13792e-05
4 *668:B2 9.95398e-06
5 *668:A2 6.10352e-05
6 *180:5 0.000153601
7 *180:6 0.00020051
8 *180:7 0.00016135
9 *180:8 0.000348866
10 *180:9 0.000236928
11 *180:10 9.5129e-05
12 *180:7 *250:18 0.000593662
13 *180:7 *42:11 0.000589728

*RES
1 *668:A2 *180:10 4.79484
2 *668:B2 *180:10 3.82662
3 *180:10 *180:9 3.9748
4 *180:8 *180:9 3.85725
5 *180:9 *180:7 4.05395
6 *180:7 *180:6 15.6333
7 *660:B2 *180:8 8.05473
8 *660:A2 *180:8 9.31168
9 *180:5 *467:Q 3.71742
10 *180:6 *180:5 8.20816
*END

*D_NET *181 0.0177177

*CONN
*I *661:ZN O *C 152.15 2.84 *L 0 *D AOI31D2BWP
*I *487:D I *C 34.27 5.22 *L 0.000567 *D DFCNQD1BWP

*CAP
1 *661:ZN 0.000213861
2 *487:D 0.000147998
3 *181:2 0.000790596
4 *181:3 0.000570238
5 *181:4 0.000268281
6 *181:5 0.000510991
7 *181:6 0.000398159
8 *181:7 0.00110298
9 *181:8 0.00100112
10 *181:9 0.000733018
11 *181:10 0.000617206
12 *181:10 *196:5 0.00160432
13 *181:8 *196:7 0.00160432
14 *181:10 *268:25 0.000374496
15 *181:9 *268:24 0.000374496
16 *181:9 *131:36 0.000153184
17 *181:9 *172:7 0.000573754
18 *181:9 *657:A2 0.000144482
19 *181:9 *491:D 0.00012064
20 *181:8 *97:6 1.27554e-05
21 *181:8 *97:5 0.00109804
22 *181:7 *97:8 0.00110358
23 *181:7 *97:5 0.000275075
24 *181:6 *97:11 2.92063e-05
25 *181:5 *97:11 0.000143349
26 *181:5 *97:9 0.000165105
27 *181:3 *97:9 0.00110358
28 *181:3 *97:8 0.000276744
29 *181:2 *654:A2 9.01818e-05
30 *181:7 *171:7 0.000756681
31 *181:3 *171:6 0.000756681
32 *487:D *160:11 0.000109673
33 *181:2 *70:4 0.000363052
34 *181:2 *661:A1 0.000129879

*RES
1 *181:10 *181:9 14.7426
2 *181:8 *181:10 41.88
3 *181:7 *181:8 40.943
4 *487:D *181:6 5.62608
5 *181:6 *181:5 8.51798
6 *181:5 *181:4 15.4895
7 *181:3 *181:7 40.9297
8 *181:4 *181:3 0.255108
9 *181:9 *181:2 23.2254
10 *181:2 *661:ZN 18.133
*END

*D_NET *182 0.0152302

*CONN
*I *669:ZN O *C 150.61 5.36 *L 0 *D AOI31D2BWP
*I *486:D I *C 38.89 5.22 *L 0.000567 *D DFCNQD1BWP

*CAP
1 *669:ZN 8.01682e-05
2 *486:D 8.33273e-05
3 *182:2 0.000183642
4 *182:3 0.000439644
5 *182:4 0.000343263
6 *182:5 0.000185668
7 *182:6 0.000284016
8 *182:7 0.00107032
9 *182:8 0.000427961
10 *182:9 0.000372112
11 *182:10 0.000546992
12 *182:11 0.000873685
13 *182:12 0.000528395
14 *182:13 0.000136912
15 *182:14 0.000394762
16 *182:15 0.00115567
17 *182:15 *18:9 0.00130922
18 *182:7 *18:16 0.00130922
19 *182:15 *158:5 0.000576139
20 *182:12 *160:11 0.000102758
21 *182:9 *216:3 0.000553489
22 *182:7 *331:5 0.00049305
23 *182:7 *218:3 0.000380278
24 *182:6 *268:29 0.000351369
25 *182:5 *268:28 0.000351369
26 *182:4 *250:22 0.000627697
27 *182:3 *250:21 0.000627697
28 *182:4 *96:3 0.00132775
29 *182:4 *669:A1 0.000113606

*RES
1 *182:15 *182:14 16.0429
2 *182:13 *182:12 3.0731
3 *486:D *182:13 5.03159
4 *182:12 *182:11 18.8555
5 *182:11 *182:10 14.2111
6 *182:10 *182:9 5.09334
7 *182:9 *182:8 11.3515
8 *182:8 *182:7 10.077
9 *182:7 *182:15 41.1435
10 *182:14 *182:6 7.0374
11 *182:6 *182:5 16.1458
12 *182:4 *182:3 31.3131
13 *182:5 *182:4 0.255227
14 *182:2 *669:ZN 3.2264
15 *182:3 *182:2 5.14102
*END

*D_NET *183 0.00574267

*CONN
*I *544:ZN O *C 67.31 3.68 *L 0 *D NR2D0BWP
*I *495:D I *C 34.69 2.7 *L 0.000567 *D DFCNQD1BWP

*CAP
1 *544:ZN 0.000143349
2 *495:D 0.000102997
3 *183:2 0.000244737
4 *183:3 0.000823855
5 *183:4 0.0012331
6 *183:5 0.00107557
7 *183:6 0.00066793
8 *183:6 *130:6 7.70092e-05
9 *183:6 *130:5 9.33409e-05
10 *183:5 *130:5 3.24249e-05
11 *183:4 *131:63 0.00056088
12 *183:3 *131:62 0.00056088
13 *183:4 *596:B 0.0001266

*RES
1 *495:D *183:6 6.85275
2 *183:6 *183:5 15.2438
3 *183:5 *183:4 12.8602
4 *183:4 *183:3 25.8375
5 *183:3 *183:2 10.0704
6 *183:2 *544:ZN 6.2803
*END

*D_NET *184 0.004022

*CONN
*I *670:ZN O *C 66.33 2.98 *L 0 *D NR3D0BWP
*I *503:D I *C 40.01 2.7 *L 0.000567 *D DFCNQD1BWP

*CAP
1 *670:ZN 2.7895e-05
2 *503:D 0.000100911
3 *184:2 0.000692368
4 *184:3 0.000851393
5 *184:4 0.000876606
6 *184:5 0.000790596
7 *184:5 *131:64 0.000313282
8 *184:5 *141:3 0.000368953

*RES
1 *503:D *184:5 7.24912
2 *184:5 *184:4 21.0576
3 *184:4 *184:3 3.66879
4 *184:3 *184:2 13.8042
5 *184:2 *670:ZN 2.2192
*END

*D_NET *185 0.00152838

*CONN
*I *546:ZN O *C 68.71 3.68 *L 0 *D NR2D0BWP
*I *494:D I *C 60.03 5.22 *L 0.000567 *D DFCNQD1BWP

*CAP
1 *546:ZN 2.29478e-05
2 *494:D 8.35657e-05
3 *185:2 0.000459969
4 *185:3 0.000556886
5 *185:4 0.000203431
6 *185:3 *606:B 8.45194e-05
7 *185:3 *319:10 0.000117064

*RES
1 *494:D *185:4 3.70407
2 *185:3 *185:2 10.8401
3 *185:4 *185:3 5.61857
4 *185:2 *546:ZN 2.05791
*END

*D_NET *186 0.00142914

*CONN
*I *555:Z O *C 73.47 3.54 *L 0 *D AN3D0BWP
*I *502:D I *C 67.45 5.22 *L 0.000567 *D DFCNQD1BWP

*CAP
1 *555:Z 9.95994e-05
2 *502:D 0.000189662
3 *186:2 0.000289261
4 *502:D *502:CP 1.37091e-06
5 *502:D *40:162 8.89897e-05
6 *502:D *448:CP 3.51667e-06
7 *186:2 *40:160 9.74536e-05
8 *502:D *253:12 0.000377178
9 *502:D *313:9 0.0001266
10 *502:D *261:4 0.000155509

*RES
1 *502:D *186:2 18.5584
2 *186:2 *555:Z 5.2855
*END

*D_NET *187 0.000424981

*CONN
*I *671:ZN O *C 90.83 5.5 *L 0 *D NR3D0BWP
*I *493:D I *C 92.65 5.22 *L 0.000567 *D DFCNQD1BWP

*CAP
1 *493:D 0.000199795
2 *671:ZN 1.26958e-05
3 *187:2 0.000212491

*RES
1 *187:2 *671:ZN 3.86643
2 *493:D *187:2 8.1768
*END

*D_NET *188 0.000523329

*CONN
*I *559:ZN O *C 95.87 3.68 *L 0 *D NR2D0BWP
*I *501:D I *C 96.71 2.7 *L 0.000567 *D DFCNQD1BWP

*CAP
1 *559:ZN 0.000220776
2 *501:D 0.000220776
3 *501:D *558:A1 8.17776e-05

*RES
1 *501:D *559:ZN 13.0308
*END

*D_NET *189 0.00552797

*CONN
*I *540:ZN O *C 100.63 5.36 *L 0 *D NR2D0BWP
*I *492:D I *C 128.07 2.7 *L 0.000567 *D DFCNQD1BWP

*CAP
1 *492:D 0.000142038
2 *540:ZN 0.00046885
3 *189:2 0.000587285
4 *189:3 0.0007056
5 *189:4 0.000729203
6 *189:4 *260:16 0.000295401
7 *189:4 *339:8 0.000445604
8 *189:4 *30:2 0.000186563
9 *189:3 *81:2 0.000465989
10 *189:3 *80:2 0.000625491
11 *189:2 *131:45 0.000374675
12 *189:2 *97:4 0.000171185
13 *189:2 *173:10 0.000158668
14 *189:2 *77:6 8.89301e-05
15 *492:D *85:7 8.24928e-05

*RES
1 *189:4 *540:ZN 22.0965
2 *189:3 *189:4 16.7013
3 *189:2 *189:3 22.3274
4 *492:D *189:2 8.47042
*END

*D_NET *190 0.00651306

*CONN
*I *558:ZN O *C 97.55 3.68 *L 0 *D NR2D0BWP
*I *500:D I *C 132.55 5.22 *L 0.000567 *D DFCNQD1BWP

*CAP
1 *500:D 0.000106215
2 *558:ZN 0.000304163
3 *190:2 0.00181538
4 *190:3 0.000375211
5 *190:4 0.00178021
6 *190:3 *314:10 0.000262976
7 *190:3 *158:8 0.000171661
8 *190:2 *251:6 0.000854492
9 *190:2 *215:4 0.000154555
10 *190:2 *161:2 0.000142813
11 *190:2 *103:4 0.000296354
12 *190:2 *195:7 9.09567e-05
13 *190:2 *287:2 0.000158072

*RES
1 *190:4 *190:3 1.73128
2 *190:3 *558:ZN 13.1207
3 *190:2 *190:4 46.6199
4 *500:D *190:2 12.7194
*END

*D_NET *191 0.000863373

*CONN
*I *552:ZN O *C 140.11 2.84 *L 0 *D NR2D0BWP
*I *491:D I *C 144.03 2.7 *L 0.000567 *D DFCNQD1BWP

*CAP
1 *552:ZN 0.000249922
2 *491:D 0.000249922
3 *491:D *181:9 0.00012064
4 *491:D *172:7 0.000111818
5 *491:D *173:8 0.000131071

*RES
1 *491:D *552:ZN 22.472
*END

*D_NET *192 0.00133634

*CONN
*I *549:ZN O *C 138.57 5.36 *L 0 *D NR2D0BWP
*I *499:D I *C 145.29 5.22 *L 0.000567 *D DFCNQD1BWP

*CAP
1 *499:D 0.000148237
2 *549:ZN 0.000145733
3 *192:2 0.00029397
4 *192:2 *194:7 0.000120282
5 *499:D *49:93 0.000107288
6 *499:D *404:I 0.000113487
7 *499:D *42:16 0.000407338

*RES
1 *192:2 *549:ZN 9.1902
2 *499:D *192:2 11.3312
*END

*D_NET *193 0.00523365

*CONN
*I *553:ZN O *C 137.45 3.68 *L 0 *D NR2D0BWP
*I *490:D I *C 164.05 2.7 *L 0.000567 *D DFCNQD1BWP

*CAP
1 *490:D 0.000237405
2 *553:ZN 0.000346899
3 *193:2 0.000483334
4 *193:3 0.000360787
5 *193:4 0.00025475
6 *193:5 0.000486791
7 *193:4 *97:2 0.0009799
8 *193:4 *173:8 0.00159562
9 *193:2 *62:3 0.000488162

*RES
1 *193:5 *553:ZN 14.1796
2 *193:4 *193:5 10.9695
3 *193:3 *193:4 10.8348
4 *193:2 *193:3 15.5779
5 *490:D *193:2 10.3314
*END

*D_NET *194 0.00762832

*CONN
*I *548:ZN O *C 137.17 5.36 *L 0 *D NR2XD0BWP
*I *498:D I *C 174.27 2.7 *L 0.000567 *D DFCNQD1BWP

*CAP
1 *498:D 0.000141323
2 *548:ZN 0.000244379
3 *194:2 0.000441909
4 *194:3 0.000840425
5 *194:4 0.000902057
6 *194:5 0.000421286
7 *194:6 0.000388145
8 *194:7 0.000639737
9 *194:7 *192:2 0.000120282
10 *194:5 *49:93 0.000113726
11 *194:5 *103:3 0.000409246
12 *194:4 *355:9 0.00017643
13 *194:4 *308:3 0.000224352
14 *194:4 *307:5 0.000435591
15 *194:3 *302:5 0.000195503
16 *194:3 *172:4 0.000528097
17 *194:3 *70:3 0.000492096
18 *194:3 *296:2 0.00017035
19 *194:3 *659:A2 0.000123024
20 *194:2 *173:4 0.000244856
21 *194:2 *117:2 0.000266075
22 *498:D *109:2 0.000109434

*RES
1 *194:7 *548:ZN 11.055
2 *194:6 *194:5 0.459075
3 *194:5 *194:7 12.1042
4 *194:4 *194:6 15.4169
5 *194:3 *194:4 27.2201
6 *194:2 *194:3 13.7395
7 *498:D *194:2 15.8443
*END

*D_NET *195 0.0064798

*CONN
*I *397:I I *C 129.47 5.22 *L 0.000656 *D CKBD1BWP
*I *672:ZN O *C 96.57 5.5 *L 0 *D NR3D0BWP

*CAP
1 *397:I 7.89762e-05
2 *672:ZN 0.000330091
3 *195:2 0.00022018
4 *195:3 0.000451028
5 *195:4 0.000159681
6 *195:5 0.000355721
7 *195:6 0.000159681
8 *195:7 0.00045675
9 *195:8 0.000740945
10 *195:8 *250:25 0.000140786
11 *195:8 *158:8 0.000274777
12 *195:8 *198:9 0.000164211
13 *195:7 *131:48 0.000408173
14 *195:7 *190:2 9.09567e-05
15 *195:7 *390:I 9.23872e-05
16 *195:6 *268:31 0.000375569
17 *195:4 *268:30 0.000375569
18 *195:4 *96:9 0.000353575
19 *195:3 *646:A1 0.00017643
20 *195:3 *159:5 0.000258207
21 *195:3 *82:9 0.000169873
22 *195:3 *646:B1 0.000102282
23 *195:2 *253:6 0.000543952

*RES
1 *195:8 *672:ZN 21.0812
2 *195:7 *195:8 15.2766
3 *195:6 *195:7 8.07333
4 *195:5 *195:4 8.07369
5 *195:4 *195:6 11.107
6 *195:3 *195:5 15.8147
7 *195:2 *195:3 26.268
8 *397:I *195:2 6.46567
*END

*D_NET *196 0.0175376

*CONN
*I *561:ZN O *C 99.37 3.68 *L 0 *D NR2D2BWP
*I *497:D I *C 238.67 2.7 *L 0.000567 *D DFCNQD1BWP

*CAP
1 *497:D 0.000412643
2 *561:ZN 0.000376105
3 *196:2 0.00110847
4 *196:3 0.000237405
5 *196:4 0.00017637
6 *196:5 0.000172079
7 *196:6 0.000446379
8 *196:7 0.000225425
9 *196:8 0.00139558
10 *196:9 0.000600457
11 *196:10 0.00122225
12 *196:10 *82:10 0.00137681
13 *196:8 *82:11 0.00137681
14 *196:9 *171:9 0.000466287
15 *196:9 *171:11 2.52724e-05
16 *196:9 *171:10 2.33054e-05
17 *196:7 *171:8 0.00144419
18 *196:7 *171:7 0.000304043
19 *196:6 *171:7 0.000104785
20 *196:5 *171:9 0.00144151
21 *196:4 *171:9 7.44462e-05
22 *196:3 *171:9 0.000662565
23 *196:7 *181:8 0.00160432
24 *196:5 *181:10 0.00160432
25 *196:4 *268:23 0.000327885
26 *196:3 *268:22 0.000327885

*RES
1 *196:10 *196:9 30.7281
2 *196:8 *196:10 40.9726
3 *196:7 *196:6 19.9214
4 *196:6 *561:ZN 15.918
5 *196:5 *196:7 42.8283
6 *196:4 *196:5 2.12359
7 *196:3 *196:4 18.2248
8 *196:9 *196:3 12.0995
9 *196:2 *196:8 40.9204
10 *497:D *196:2 14.5268
*END

*D_NET *197 0.00643283

*CONN
*I *396:I I *C 171.19 3.82 *L 0.000656 *D CKBD1BWP
*I *551:ZN O *C 136.33 3.68 *L 0 *D NR2D0BWP

*CAP
1 *396:I 8.23736e-05
2 *551:ZN 0.000411093
3 *197:2 0.00152141
4 *197:3 0.000439405
5 *197:4 0.00146735
6 *197:3 *482:CP 1.90139e-05
7 *197:2 *40:135 4.36306e-05
8 *197:2 *473:CP 4.12464e-05
9 *197:3 *131:38 0.000203013
10 *197:3 *552:A1 8.86917e-05
11 *197:2 *355:9 0.000311136
12 *197:2 *301:6 0.000135541
13 *197:2 *354:6 0.000641346
14 *197:2 *291:3 0.000102758
15 *197:2 *656:A2 0.000179887
16 *197:2 *304:2 0.000360966
17 *197:2 *297:3 0.000383973

*RES
1 *197:4 *197:3 0.763297
2 *197:3 *551:ZN 12.2981
3 *197:2 *197:4 49.8552
4 *396:I *197:2 4.34303
*END

*D_NET *198 0.0196589

*CONN
*I *562:ZN O *C 98.25 5.36 *L 0 *D NR2D2BWP
*I *496:D I *C 250.43 5.22 *L 0.000567 *D DFCNQD1BWP

*CAP
1 *496:D 0.000186682
2 *562:ZN 0.00027293
3 *198:2 0.00067687
4 *198:3 0.000572085
5 *198:4 0.000498354
6 *198:5 0.000572801
7 *198:6 0.000492811
8 *198:7 0.000961661
9 *198:8 0.000946939
10 *198:9 0.000652671
11 *198:10 0.000848949
12 *198:10 *143:14 0.001196
13 *198:10 *143:12 2.31862e-05
14 *198:9 *143:14 1.10269e-05
15 *198:9 *143:13 0.000496417
16 *198:8 *143:12 0.00140074
17 *198:8 *143:11 2.3067e-05
18 *198:7 *143:11 0.00140229
19 *198:7 *143:3 2.31862e-05
20 *198:6 *143:3 0.000701129
21 *198:6 *571:A1 4.11272e-06
22 *198:10 *18:8 0.000502586
23 *198:10 *75:9 4.98891e-05
24 *198:10 *75:8 0.000110805
25 *198:8 *75:8 0.000668705
26 *198:8 *75:6 0.000958383
27 *198:7 *75:6 0.000443935
28 *198:7 *75:10 0.000963271
29 *198:6 *75:10 0.000444591
30 *198:6 *75:12 0.000599146
31 *198:6 *75:11 0.000346601
32 *198:6 *75:5 0.000105798
33 *198:3 *75:5 0.000736952
34 *198:3 *75:14 1.96695e-06
35 *198:3 *75:13 7.62939e-06
36 *198:9 *195:8 0.000164211
37 *198:5 *268:40 0.000655711
38 *198:3 *268:20 0.000655711
39 *198:2 *83:4 0.000279069

*RES
1 *198:10 *198:9 29.1246
2 *198:8 *198:10 41.2318
3 *198:7 *198:8 40.8272
4 *198:9 *562:ZN 14.2431
5 *198:6 *198:7 41.0525
6 *198:5 *198:6 0.255108
7 *198:4 *198:3 0.255108
8 *198:3 *198:5 38.483
9 *198:2 *198:4 28.2724
10 *496:D *198:2 8.50534
*END

*D_NET *199 0.000603914

*CONN
*I *507:Z O *C 123.45 4.1 *L 0 *D TIEHBWP
*I *474:D I *C 125.55 5.22 *L 0.000567 *D DFCNQD1BWP

*CAP
1 *507:Z 0.000211
2 *474:D 0.000211
3 *474:D *251:6 8.82745e-05
4 *474:D *314:7 9.36389e-05

*RES
1 *474:D *507:Z 15.6631
*END

*D_NET *200 0.000604749

*CONN
*I *519:ZN O *C 195.13 4.24 *L 0 *D MOAI22D0BWP
*I *465:D I *C 196.25 2.7 *L 0.000567 *D DFCNQD1BWP

*CAP
1 *465:D 8.16584e-05
2 *519:ZN 0.000220716
3 *200:2 0.000302374

*RES
1 *200:2 *519:ZN 8.70717
2 *465:D *200:2 3.09026
*END

*D_NET *201 0.000856638

*CONN
*I *600:ZN O *C 191.35 2.28 *L 0 *D OAI22D0BWP
*I *464:D I *C 188.55 2.7 *L 0.000567 *D DFCNQD1BWP

*CAP
1 *600:ZN 0.000101805
2 *464:D 3.93391e-05
3 *201:2 0.000258863
4 *201:3 0.000196397
5 *464:D *238:8 0.000161886
6 *201:3 *49:74 9.83477e-05

*RES
1 *464:D *201:3 5.50139
2 *201:3 *201:2 18.0813
3 *201:2 *600:ZN 6.55043
*END

*D_NET *202 0.00063777

*CONN
*I *594:ZN O *C 199.19 2.98 *L 0 *D AOI21D0BWP
*I *463:D I *C 199.05 5.22 *L 0.000567 *D DFCNQD1BWP

*CAP
1 *594:ZN 0.000271082
2 *463:D 4.78029e-05
3 *202:2 0.000318885

*RES
1 *463:D *202:2 8.1147
2 *202:2 *594:ZN 12.0683
*END

*D_NET *203 0.000725269

*CONN
*I *505:ZN O *C 23.07 2.42 *L 0 *D IND2D0BWP
*I *504:D I *C 21.11 5.22 *L 0.000567 *D DFCNQD1BWP

*CAP
1 *505:ZN 1.62721e-05
2 *504:D 0.000346363
3 *203:2 0.000362635

*RES
1 *504:D *203:2 12.1157
2 *203:2 *505:ZN 3.98695
*END

*D_NET *204 0.000354052

*CONN
*I *606:ZN O *C 58.49 3.54 *L 0 *D AOI21D0BWP
*I *434:D I *C 58.77 2.7 *L 0.000567 *D DFCNQD1BWP

*CAP
1 *606:ZN 0.000177026
2 *434:D 0.000177026

*RES
1 *434:D *606:ZN 9.69696
*END

*D_NET *205 0.000809431

*CONN
*I *599:ZN O *C 54.71 5.5 *L 0 *D CKND2D0BWP
*I *435:D I *C 50.79 5.22 *L 0.000567 *D DFCNQD1BWP

*CAP
1 *599:ZN 0.000108302
2 *435:D 9.78708e-05
3 *205:2 0.000243366
4 *205:3 0.000232935
5 *435:D *435:CP 5.96046e-07
6 *205:3 *40:166 9.13739e-05
7 *205:2 *40:166 3.49879e-05

*RES
1 *435:D *205:3 3.70264
2 *205:3 *205:2 7.88224
3 *205:2 *599:ZN 9.29463
*END

*D_NET *206 0.000616908

*CONN
*I *615:ZN O *C 69.41 5.5 *L 0 *D OAI32D0BWP
*I *448:D I *C 68.85 2.7 *L 0.000567 *D DFCNQD1BWP

*CAP
1 *615:ZN 0.000227153
2 *448:D 8.13007e-05
3 *206:2 0.000308454

*RES
1 *448:D *206:2 4.45676
2 *206:2 *615:ZN 7.49481
*END

*D_NET *207 0.000732303

*CONN
*I *610:ZN O *C 80.61 4.24 *L 0 *D OAI22D0BWP
*I *447:D I *C 78.93 2.7 *L 0.000567 *D DFCNQD1BWP

*CAP
1 *610:ZN 4.75049e-05
2 *447:D 2.93851e-05
3 *207:2 0.000212312
4 *207:3 0.000194192
5 *447:D *131:57 0.000105619
6 *447:D *339:10 0.00014329

*RES
1 *447:D *207:3 4.86696
2 *207:3 *207:2 6.10363
3 *207:2 *610:ZN 2.59531
*END

*D_NET *208 0.000638962

*CONN
*I *608:ZN O *C 83.97 5.5 *L 0 *D AOI21D0BWP
*I *446:D I *C 83.27 2.7 *L 0.000567 *D DFCNQD1BWP

*CAP
1 *608:ZN 0.000229716
2 *446:D 8.97646e-05
3 *208:2 0.000319481

*RES
1 *446:D *208:2 4.66061
2 *208:2 *608:ZN 9.27734
*END

*D_NET *209 0.00130165

*CONN
*I *514:A4 I *C 226.63 3.82 *L 0.000656 *D ND4D1BWP
*I *513:ZN O *C 220.89 5.36 *L 0 *D NR4D0BWP

*CAP
1 *514:A4 0.000185311
2 *513:ZN 0.000263035
3 *209:2 0.000448346
4 *209:2 *568:A2 0.000126719
5 *209:2 *83:5 0.000278234

*RES
1 *209:2 *513:ZN 14.8638
2 *514:A4 *209:2 6.79457
*END

*D_NET *210 0.00523543

*CONN
*I *518:A2 I *C 203.39 3.68 *L 0.000441 *D CKND2D0BWP
*I *516:A2 I *C 202.41 2.56 *L 0.000443 *D OAI31D0BWP
*I *514:ZN O *C 227.47 3.54 *L 0 *D ND4D1BWP

*CAP
1 *514:ZN 1.69873e-05
2 *518:A2 4.38094e-05
3 *516:A2 0.000157654
4 *210:3 0.000107169
5 *210:4 0.000287354
6 *210:5 0.000344276
7 *210:6 0.000305295
8 *210:7 0.00017786
9 *210:8 0.000221133
10 *516:A2 *162:5 0.000137806
11 *210:8 *40:109 8.10623e-06
12 *210:8 *40:108 8.46386e-06
13 *210:8 *432:CP 1.77622e-05
14 *210:7 *40:108 0.000211179
15 *210:7 *40:105 0.000274479
16 *210:7 *40:103 5.78761e-05
17 *210:6 *40:106 0.00020045
18 *210:6 *40:104 0.000227869
19 *210:7 *84:4 0.000891924
20 *210:7 *99:8 0.000136256
21 *210:6 *256:9 0.000228047
22 *210:6 *228:8 0.000149131
23 *210:5 *225:4 0.000286579
24 *210:5 *344:4 9.4831e-05
25 *210:5 *91:10 0.000643134

*RES
1 *516:A2 *210:8 11.7756
2 *518:A2 *210:8 8.4604
3 *210:8 *210:7 4.32575
4 *210:7 *210:6 27.1313
5 *210:6 *210:5 17.5265
6 *210:5 *210:4 14.9666
7 *210:4 *210:3 5.13577
8 *210:3 *514:ZN 4.03631
*END

*D_NET *211 0.00235891

*CONN
*I *530:A1 I *C 200.59 2.7 *L 0.000443 *D NR2D0BWP
*I *527:A1 I *C 198.91 3.82 *L 0.000519 *D NR2XD0BWP
*I *516:A3 I *C 202.69 2.7 *L 0.00043 *D OAI31D0BWP
*I *515:ZN O *C 193.17 2.98 *L 0 *D CKND2D0BWP

*CAP
1 *516:A3 0.000172138
2 *530:A1 9.07183e-05
3 *515:ZN 0.000357986
4 *527:A1 0.000134945
5 *211:4 0.000323832
6 *211:5 0.000553906
7 *211:5 *49:73 0.000261545
8 *211:4 *63:4 0.000231147
9 *516:A3 *76:12 0.000232697

*RES
1 *527:A1 *211:5 9.63402
2 *211:5 *515:ZN 16.4838
3 *530:A1 *211:4 12.4453
4 *211:4 *211:5 6.59978
5 *516:A3 *211:4 16.8209
*END

*D_NET *212 0.00137842

*CONN
*I *531:A1 I *C 193.17 5.36 *L 0.000429 *D OR2D0BWP
*I *527:A2 I *C 198.63 3.68 *L 0.000587 *D NR2XD0BWP
*I *510:A1 I *C 192.05 5.22 *L 0.00108 *D NR3D1BWP
*I *508:ZN O *C 196.95 5.5 *L 0 *D CKND2D0BWP

*CAP
1 *527:A2 0.000145674
2 *508:ZN 9.11951e-06
3 *531:A1 1.16825e-05
4 *510:A1 1.10269e-05
5 *212:4 0.00032258
6 *212:5 0.000465989
7 *212:6 0.000302672
8 *212:6 *213:4 0.000109673

*RES
1 *510:A1 *212:6 4.19092
2 *212:6 *212:5 7.30145
3 *531:A1 *212:6 3.86178
4 *212:5 *508:ZN 3.82626
5 *212:4 *212:5 10.4479
6 *527:A2 *212:4 6.46365
*END

*D_NET *213 0.00220907

*CONN
*I *536:A2 I *C 186.03 3.68 *L 0.00046 *D NR2D0BWP
*I *533:A1 I *C 194.01 3.82 *L 0.000443 *D NR2D0BWP
*I *519:A2 I *C 194.71 3.82 *L 0.000453 *D MOAI22D0BWP
*I *517:ZN O *C 191.21 5.5 *L 0 *D INVD0BWP

*CAP
1 *519:A2 6.4075e-05
2 *533:A1 1.10865e-05
3 *517:ZN 1.2219e-05
4 *536:A2 0.000475943
5 *213:4 0.000352383
6 *213:5 0.000765383
7 *536:A2 *466:D 9.2864e-05
8 *536:A2 *83:6 0.000184298
9 *213:4 *517:I 0.000141144
10 *213:4 *212:6 0.000109673

*RES
1 *536:A2 *213:5 22.23
2 *213:5 *517:ZN 3.86631
3 *213:4 *213:5 16.4118
4 *533:A1 *213:4 3.82054
5 *519:A2 *213:4 5.0931
*END

*D_NET *214 0.00208819

*CONN
*I *536:A1 I *C 185.75 3.82 *L 0.000443 *D NR2D0BWP
*I *535:A1 I *C 179.87 3.68 *L 0.00114 *D NR2D2BWP
*I *534:ZN O *C 189.81 3.54 *L 0 *D CKND2D0BWP

*CAP
1 *534:ZN 6.14524e-05
2 *536:A1 2.03848e-05
3 *535:A1 6.34789e-05
4 *214:3 0.000301063
5 *214:4 0.000537872
6 *214:5 0.000341356
7 *214:5 *38:4 0.000187039
8 *214:5 *175:2 0.000133514
9 *214:4 *330:7 0.000158787
10 *214:4 *91:6 0.000283241

*RES
1 *535:A1 *214:5 5.26094
2 *214:5 *214:4 8.42631
3 *214:4 *214:3 14.9127
4 *536:A1 *214:4 2.04563
5 *214:3 *534:ZN 2.93112
*END

*D_NET *215 0.00219291

*CONN
*I *549:A1 I *C 138.43 5.22 *L 0.000443 *D NR2D0BWP
*I *548:A1 I *C 137.03 5.22 *L 0.000519 *D NR2XD0BWP
*I *547:ZN O *C 128.77 5.5 *L 0 *D INVD0BWP

*CAP
1 *549:A1 7.89165e-05
2 *547:ZN 0.000239909
3 *548:A1 5.14984e-05
4 *215:3 0.000115573
5 *215:4 0.000328064
6 *215:4 *250:22 0.000139594
7 *215:4 *74:14 0.000542521
8 *215:4 *42:17 0.000542283
9 *215:4 *190:2 0.000154555

*RES
1 *548:A1 *215:4 6.17647
2 *215:4 *547:ZN 27.1615
3 *215:3 *215:4 4.22037
4 *549:A1 *215:3 5.42319
*END

*D_NET *216 0.00234997

*CONN
*I *550:A2 I *C 77.39 5.36 *L 0.000611 *D CKND2D1BWP
*I *538:A1 I *C 72.07 5.22 *L 0.000423 *D CKND2D0BWP
*I *537:ZN O *C 64.51 5.36 *L 0 *D NR2D0BWP

*CAP
1 *550:A2 0.00037688
2 *537:ZN 0.000470221
3 *538:A1 5.11408e-05
4 *216:3 0.000898242
5 *216:3 *182:9 0.000553489

*RES
1 *538:A1 *216:3 2.81727
2 *216:3 *537:ZN 15.5485
3 *550:A2 *216:3 15.6208
*END

*D_NET *217 0.00137591

*CONN
*I *559:A1 I *C 95.73 3.82 *L 0.000443 *D NR2D0BWP
*I *558:A1 I *C 97.41 3.82 *L 0.000443 *D NR2D0BWP
*I *557:ZN O *C 89.99 3.54 *L 0 *D CKND2D0BWP

*CAP
1 *558:A1 0.000110209
2 *557:ZN 0.000395119
3 *559:A1 9.41753e-06
4 *217:3 0.000514746
5 *558:A1 *39:4 0.000264645
6 *558:A1 *501:D 8.17776e-05

*RES
1 *559:A1 *217:3 3.82638
2 *217:3 *557:ZN 12.9272
3 *558:A1 *217:3 16.3167
*END

*D_NET *218 0.00242865

*CONN
*I *562:A1 I *C 98.53 5.36 *L 0.00114 *D NR2D2BWP
*I *561:A1 I *C 99.65 3.68 *L 0.00114 *D NR2D2BWP
*I *560:ZN O *C 87.89 5.5 *L 0 *D CKND2D0BWP

*CAP
1 *561:A1 8.15988e-05
2 *562:A1 3.63588e-05
3 *560:ZN 0.000600159
4 *218:3 0.00077188
5 *218:4 0.000216961
6 *218:3 *493:CDN 0.000108242
7 *218:3 *260:7 0.000129342
8 *218:3 *182:7 0.000380278
9 *561:A1 *561:A2 0.000103831

*RES
1 *218:4 *218:3 6.21581
2 *218:3 *560:ZN 25.3248
3 *562:A1 *218:3 8.45444
4 *561:A1 *218:4 6.46639
*END

*D_NET *219 0.000995278

*CONN
*I *565:A2 I *C 217.53 5.36 *L 0.000432 *D AOI211D0BWP
*I *564:A1 I *C 218.79 5.22 *L 0.000443 *D NR2D0BWP
*I *513:A4 I *C 220.05 5.36 *L 0.000602 *D NR4D0BWP
*I *512:ZN O *C 216.55 5.5 *L 0 *D INVD0BWP

*CAP
1 *513:A4 9.69171e-05
2 *564:A1 7.95722e-05
3 *512:ZN 8.29101e-05
4 *565:A2 4.94719e-06
5 *219:4 0.000245631
6 *219:5 0.000156999
7 *219:5 *565:A1 8.35657e-05
8 *513:A4 *250:11 0.000120997
9 *513:A4 *42:4 0.000123739

*RES
1 *565:A2 *219:5 3.77548
2 *219:5 *512:ZN 5.77545
3 *219:4 *219:5 9.58061
4 *564:A1 *219:4 12.3702
5 *513:A4 *219:4 13.8869
*END

*D_NET *220 0.000620842

*CONN
*I *565:A1 I *C 217.25 5.22 *L 0.000412 *D AOI211D0BWP
*I *564:A2 I *C 218.51 5.36 *L 0.00046 *D NR2D0BWP
*I *563:ZN O *C 219.35 5.5 *L 0 *D INVD0BWP

*CAP
1 *563:ZN 4.06504e-05
2 *564:A2 1.51992e-05
3 *565:A1 0.000171304
4 *220:3 0.000227153
5 *565:A1 *219:5 8.35657e-05
6 *565:A1 *83:12 8.29697e-05

*RES
1 *565:A1 *220:3 15.5948
2 *564:A2 *220:3 4.42767
3 *220:3 *563:ZN 4.84502
*END

*D_NET *221 0.000925422

*CONN
*I *569:A1 I *C 225.23 3.82 *L 0.000412 *D AOI211D0BWP
*I *568:A2 I *C 223.13 5.36 *L 0.00046 *D NR2D0BWP
*I *566:ZN O *C 226.07 5.5 *L 0 *D INVD0BWP

*CAP
1 *566:ZN 4.80413e-05
2 *569:A1 0.000183642
3 *568:A2 0.000127733
4 *221:3 0.000223577
5 *221:4 0.000215709
6 *568:A2 *209:2 0.000126719

*RES
1 *568:A2 *221:4 7.27355
2 *569:A1 *221:3 8.62837
3 *221:4 *566:ZN 2.93088
4 *221:3 *221:4 2.2006
*END

*D_NET *222 0.00270158

*CONN
*I *570:A2 I *C 207.59 5.36 *L 0.000441 *D CKND2D0BWP
*I *528:A1 I *C 197.93 5.22 *L 0.000443 *D NR2D0BWP
*I *524:A1 I *C 211.79 5.22 *L 0.000443 *D NR2D0BWP
*I *523:ZN O *C 203.11 5.5 *L 0 *D INVD0BWP

*CAP
1 *524:A1 0.000232399
2 *570:A2 1.508e-05
3 *523:ZN 1.55568e-05
4 *528:A1 3.43323e-05
5 *222:4 0.00024128
6 *222:5 0.000263453
7 *222:6 0.000612378
8 *222:7 0.000391662
9 *222:7 *349:6 0.000219703
10 *222:7 *178:7 0.000201344
11 *222:5 *250:14 0.000234485
12 *222:5 *42:7 0.000239909

*RES
1 *528:A1 *222:7 4.96662
2 *222:7 *222:6 12.62
3 *222:6 *523:ZN 2.00689
4 *570:A2 *222:5 2.00784
5 *222:4 *222:5 0.160217
6 *222:5 *222:6 15.5282
7 *524:A1 *222:4 8.29065
*END

*D_NET *223 0.00184441

*CONN
*I *571:B I *C 204.09 3.82 *L 0.00048 *D OAI21D0BWP
*I *519:A1 I *C 195.13 3.68 *L 0.000434 *D MOAI22D0BWP
*I *516:ZN O *C 202.13 2.98 *L 0 *D OAI31D0BWP

*CAP
1 *571:B 0.000264227
2 *516:ZN 1.17421e-05
3 *519:A1 0.000539124
4 *223:3 0.000815094
5 *519:A1 *317:4 9.21488e-05
6 *571:B *228:11 0.00012207

*RES
1 *519:A1 *223:3 15.4897
2 *223:3 *516:ZN 3.82638
3 *571:B *223:3 16.1842
*END

*D_NET *224 0.000818253

*CONN
*I *571:A2 I *C 204.65 3.82 *L 0.000446 *D OAI21D0BWP
*I *570:ZN O *C 207.17 5.5 *L 0 *D CKND2D0BWP

*CAP
1 *570:ZN 5.76973e-05
2 *571:A2 4.44055e-05
3 *224:2 0.000195742
4 *224:3 0.00018245
5 *571:A2 *480:D 0.00013113
6 *571:A2 *163:2 9.65595e-05
7 *224:3 *432:CDN 0.000110269

*RES
1 *571:A2 *224:3 7.25985
2 *224:3 *224:2 10.1681
3 *224:2 *570:ZN 4.85313
*END

*D_NET *225 0.00196075

*CONN
*I *574:A2 I *C 229.29 2.7 *L 0.000425 *D OA211D0BWP
*I *573:A2 I *C 228.45 3.68 *L 0.000441 *D CKND2D0BWP
*I *569:B I *C 224.67 3.68 *L 0.000441 *D AOI211D0BWP
*I *568:ZN O *C 223.55 5.36 *L 0 *D NR2D0BWP

*CAP
1 *574:A2 5.04851e-05
2 *573:A2 1.4782e-05
3 *568:ZN 0.00014931
4 *569:B 6.53863e-05
5 *225:4 0.000326633
6 *225:5 0.000192702
7 *225:6 0.000384331
8 *225:6 *178:4 0.000127316
9 *225:5 *574:A1 0.000129819
10 *225:4 *228:6 0.000233412
11 *225:4 *210:5 0.000286579

*RES
1 *569:B *225:6 6.19221
2 *225:6 *568:ZN 9.92882
3 *225:5 *225:4 5.82659
4 *225:4 *225:6 14.0817
5 *573:A2 *225:4 2.00689
6 *574:A2 *225:5 4.64952
*END

*D_NET *226 0.00129926

*CONN
*I *575:C I *C 222.57 3.68 *L 0.000526 *D OA211D0BWP
*I *569:A2 I *C 224.95 3.68 *L 0.000432 *D AOI211D0BWP
*I *568:A1 I *C 223.41 5.22 *L 0.000443 *D NR2D0BWP
*I *567:ZN O *C 221.73 5.5 *L 0 *D CKND2D0BWP

*CAP
1 *569:A2 0.0002895
2 *568:A1 6.01411e-05
3 *567:ZN 5.91874e-05
4 *575:C 5.66244e-05
5 *226:4 0.000258625
6 *226:5 0.00048542
7 *226:4 *567:A1 8.97646e-05

*RES
1 *575:C *226:5 6.17671
2 *226:5 *226:4 4.26412
3 *226:4 *567:ZN 5.71597
4 *568:A1 *226:4 4.81987
5 *569:A2 *226:5 10.7017
*END

*D_NET *227 0.00164866

*CONN
*I *575:A2 I *C 222.01 3.82 *L 0.000425 *D OA211D0BWP
*I *567:A2 I *C 221.31 5.36 *L 0.000441 *D CKND2D0BWP
*I *565:B I *C 217.81 5.36 *L 0.000441 *D AOI211D0BWP
*I *564:ZN O *C 218.93 5.36 *L 0 *D NR2D0BWP

*CAP
1 *575:A2 0.000105441
2 *567:A2 0.000131607
3 *564:ZN 1.18613e-05
4 *565:B 0.000150144
5 *227:4 0.000430346
6 *227:5 0.000355303
7 *565:B *178:4 9.94205e-05
8 *227:4 *256:8 9.53674e-05
9 *227:4 *228:7 0.000269175

*RES
1 *565:B *227:5 14.937
2 *227:5 *564:ZN 3.8662
3 *567:A2 *227:4 7.63285
4 *227:4 *227:5 11.8772
5 *575:A2 *227:4 7.47609
*END

*D_NET *228 0.00766957

*CONN
*I *578:C I *C 231.25 3.82 *L 0.000457 *D AOI211D0BWP
*I *572:I I *C 216.27 3.82 *L 0.000464 *D INVD0BWP
*I *569:C I *C 224.39 3.82 *L 0.000457 *D AOI211D0BWP
*I *565:C I *C 218.09 5.22 *L 0.000457 *D AOI211D0BWP
*I *519:B2 I *C 195.41 3.82 *L 0.000502 *D MOAI22D0BWP
*I *518:ZN O *C 202.97 3.54 *L 0 *D CKND2D0BWP

*CAP
1 *578:C 0.000186503
2 *569:C 6.43134e-05
3 *565:C 5.97835e-05
4 *572:I 8.16584e-06
5 *518:ZN 1.57356e-05
6 *519:B2 0.000294447
7 *228:6 0.000307441
8 *228:7 0.000533104
9 *228:8 0.000562251
10 *228:9 0.000248015
11 *228:10 0.000671923
12 *228:11 0.000853181
13 *228:12 0.000576675
14 *519:B2 *40:112 0.000157714
15 *519:B2 *40:110 0.000302851
16 *228:12 *40:108 0.000175059
17 *228:10 *455:CP 5.48363e-06
18 *519:B2 *84:6 0.000650883
19 *228:11 *571:B 0.00012207
20 *228:11 *426:I 0.000110626
21 *228:11 *480:D 0.000188708
22 *228:8 *210:6 0.000149131
23 *228:7 *227:4 0.000269175
24 *228:7 *178:4 0.000547647
25 *228:6 *225:4 0.000233412
26 *228:6 *99:6 0.000270486
27 *578:C *91:4 0.000104785

*RES
1 *519:B2 *228:12 31.1964
2 *228:12 *518:ZN 1.98686
3 *228:11 *228:12 8.39281
4 *228:10 *228:11 12.1754
5 *228:9 *228:10 1.89424
6 *572:I *228:9 3.82054
7 *228:8 *228:9 8.34799
8 *565:C *228:8 8.87299
9 *228:7 *228:8 22.1864
10 *569:C *228:7 6.37245
11 *228:6 *228:7 8.48842
12 *578:C *228:6 11.3765
*END

*D_NET *229 0.00134718

*CONN
*I *578:A2 I *C 231.81 3.68 *L 0.000432 *D AOI211D0BWP
*I *577:A1 I *C 230.97 2.7 *L 0.000443 *D NR2D0BWP
*I *574:C I *C 229.85 2.84 *L 0.000526 *D OA211D0BWP
*I *573:ZN O *C 228.87 3.54 *L 0 *D CKND2D0BWP

*CAP
1 *578:A2 4.92334e-05
2 *577:A1 1.24574e-05
3 *574:C 2.7895e-05
4 *573:ZN 0.000150561
5 *229:4 6.52671e-05
6 *229:5 0.000122428
7 *229:6 0.000272393
8 *229:6 *574:A1 0.000145078
9 *229:5 *177:2 8.92878e-05
10 *229:4 *514:A3 9.25064e-05
11 *578:A2 *578:B 0.00011003
12 *578:A2 *230:5 0.000210047

*RES
1 *229:6 *573:ZN 15.1809
2 *574:C *229:6 4.54295
3 *229:5 *229:6 2.68364
4 *577:A1 *229:5 3.87239
5 *229:4 *229:5 6.0842
6 *578:A2 *229:4 10.972
*END

*D_NET *230 0.000786066

*CONN
*I *578:A1 I *C 232.09 3.82 *L 0.000412 *D AOI211D0BWP
*I *577:A2 I *C 230.69 2.84 *L 0.00046 *D NR2D0BWP
*I *576:ZN O *C 231.67 5.5 *L 0 *D INVD0BWP

*CAP
1 *578:A1 3.73721e-05
2 *576:ZN 2.15173e-05
3 *577:A2 7.53999e-05
4 *230:3 0.000103712
5 *230:4 0.000191093
6 *230:5 0.000146925
7 *230:5 *578:A2 0.000210047

*RES
1 *577:A2 *230:5 6.57666
2 *230:5 *230:4 6.29067
3 *230:4 *230:3 5.15139
4 *230:3 *576:ZN 4.03857
5 *578:A1 *230:4 7.93016
*END

*D_NET *231 0.000691891

*CONN
*I *584:A4 I *C 273.95 5.36 *L 0.000483 *D AN4D0BWP
*I *583:ZN O *C 273.81 2.84 *L 0 *D NR2D0BWP

*CAP
1 *583:ZN 0.000294685
2 *584:A4 0.000294685
3 *584:A4 *442:CP 1.49012e-06
4 *584:A4 *40:83 3.57628e-07
5 *584:A4 *40:81 2.98023e-06
6 *584:A4 *438:CP 9.7692e-05

*RES
1 *584:A4 *583:ZN 17.1132
*END

*D_NET *232 0.00308961

*CONN
*I *585:A4 I *C 257.29 2.56 *L 0.000665 *D AN4D2BWP
*I *584:Z O *C 273.53 5.5 *L 0 *D AN4D0BWP

*CAP
1 *584:Z 5.21541e-05
2 *585:A4 0.000308752
3 *232:2 0.000368893
4 *232:3 0.000460744
5 *232:4 0.000452757
6 *585:A4 *40:87 1.85966e-05
7 *232:4 *40:87 0.000130534
8 *232:4 *40:85 0.000154912
9 *232:4 *40:84 0.000149429
10 *232:4 *40:82 0.000145376
11 *232:3 *40:82 1.04904e-05
12 *232:4 *98:8 0.0006423
13 *232:3 *321:3 0.000194669

*RES
1 *585:A4 *232:4 15.5853
2 *232:4 *232:3 15.9084
3 *232:3 *232:2 11.1184
4 *232:2 *584:Z 4.99964
*END

*D_NET *233 0.00182605

*CONN
*I *585:A3 I *C 257.43 2.84 *L 0.000637 *D AN4D2BWP
*I *582:ZN O *C 269.05 2.84 *L 0 *D NR4D0BWP

*CAP
1 *582:ZN 5.56707e-05
2 *585:A3 8.5175e-05
3 *233:2 0.000140488
4 *233:3 0.000368238
5 *233:4 0.000368595
6 *233:4 *623:C 0.000301838
7 *233:4 *240:6 0.000392795
8 *233:4 *582:A1 0.000113249

*RES
1 *585:A3 *233:4 12.4333
2 *233:4 *233:3 17.4701
3 *233:2 *582:ZN 4.91297
4 *233:3 *233:2 4.5774
*END

*D_NET *234 0.00237703

*CONN
*I *593:A2 I *C 197.65 3.68 *L 0.00046 *D NR2D0BWP
*I *534:A1 I *C 189.95 3.82 *L 0.000423 *D CKND2D0BWP
*I *529:I I *C 197.79 2.7 *L 0.000464 *D INVD0BWP
*I *528:ZN O *C 197.79 5.36 *L 0 *D NR2D0BWP

*CAP
1 *529:I 0.000134587
2 *528:ZN 3.14713e-05
3 *593:A2 5.8949e-05
4 *534:A1 0.00013417
5 *234:4 3.66569e-05
6 *234:5 0.000281155
7 *234:6 0.000642478
8 *234:7 0.000683844
9 *234:7 *174:5 0.000106692
10 *234:7 *237:4 0.000267029

*RES
1 *234:7 *234:6 12.839
2 *534:A1 *234:7 7.15935
3 *234:5 *234:6 3.02958
4 *234:6 *234:4 0.160098
5 *593:A2 *234:5 6.38306
6 *234:4 *528:ZN 2.4718
7 *529:I *234:5 7.46405
*END

*D_NET *235 0.000616312

*CONN
*I *594:A2 I *C 199.61 2.7 *L 0.000418 *D AOI21D0BWP
*I *516:A1 I *C 202.13 2.7 *L 0.000454 *D OAI31D0BWP
*I *511:ZN O *C 201.15 2.98 *L 0 *D INVD0BWP

*CAP
1 *516:A1 0.000132024
2 *511:ZN 1.35303e-05
3 *594:A2 0.000162601
4 *235:3 0.000308156

*RES
1 *594:A2 *235:3 14.0327
2 *235:3 *511:ZN 3.8662
3 *516:A1 *235:3 13.3038
*END

*D_NET *236 0.000666499

*CONN
*I *358:I I *C 55.27 5.22 *L 0.000656 *D CKBD1BWP
*I *596:ZN O *C 54.57 2.84 *L 0 *D OAI21D0BWP

*CAP
1 *358:I 0.0002442
2 *596:ZN 8.90493e-05
3 *236:2 0.00033325

*RES
1 *236:2 *596:ZN 6.86622
2 *358:I *236:2 8.32212
*END

*D_NET *237 0.00194573

*CONN
*I *600:B1 I *C 192.19 2.7 *L 0.000441 *D OAI22D0BWP
*I *594:B I *C 198.91 2.7 *L 0.000468 *D AOI21D0BWP
*I *593:ZN O *C 198.07 3.68 *L 0 *D NR2D0BWP

*CAP
1 *594:B 0.000229001
2 *593:ZN 9.23872e-06
3 *600:B1 0.000160038
4 *237:3 0.000620723
5 *237:4 0.000542521
6 *237:4 *347:10 0.000117183
7 *237:4 *234:7 0.000267029

*RES
1 *600:B1 *237:4 10.6468
2 *237:4 *237:3 14.1954
3 *237:3 *593:ZN 3.8203
4 *594:B *237:3 14.8907
*END

*D_NET *238 0.00384223

*CONN
*I *600:A2 I *C 191.63 2.7 *L 0.000466 *D OAI22D0BWP
*I *533:A2 I *C 193.73 3.68 *L 0.00046 *D NR2D0BWP
*I *532:A1 I *C 177.21 2.7 *L 0.000883 *D NR2XD1BWP
*I *531:Z O *C 193.87 5.5 *L 0 *D OR2D0BWP

*CAP
1 *533:A2 1.07288e-05
2 *531:Z 2.41995e-05
3 *600:A2 9.95398e-06
4 *532:A1 0.000222206
5 *238:4 0.000152707
6 *238:5 0.000406086
7 *238:6 0.00036484
8 *238:7 0.000490427
9 *238:8 0.000624597
10 *532:A1 *71:5 0.000109673
11 *238:8 *49:78 0.000367403
12 *238:8 *347:14 0.000789404
13 *238:8 *464:D 0.000161886
14 *238:6 *600:B2 0.000108123

*RES
1 *532:A1 *238:8 9.84454
2 *238:8 *238:7 20.1787
3 *238:7 *238:6 10.0336
4 *600:A2 *238:6 3.86608
5 *238:6 *238:5 13.4783
6 *238:5 *238:4 9.27019
7 *238:4 *531:Z 4.01831
8 *533:A2 *238:5 3.8203
*END

*D_NET *239 0.00116694

*CONN
*I *602:B I *C 267.23 2.84 *L 0.000441 *D AOI211D0BWP
*I *588:A2 I *C 264.57 3.82 *L 0.000425 *D OA211D0BWP
*I *587:A2 I *C 264.85 5.36 *L 0.000441 *D CKND2D0BWP
*I *581:ZN O *C 267.79 2.84 *L 0 *D NR2D0BWP

*CAP
1 *602:B 4.28557e-05
2 *581:ZN 3.98159e-05
3 *587:A2 0.000120223
4 *588:A2 3.39746e-05
5 *239:4 5.31673e-05
6 *239:5 0.000286639
7 *239:6 0.000384629
8 *587:A2 *587:A1 8.44002e-05
9 *239:4 *264:5 0.000121236

*RES
1 *588:A2 *239:6 7.9304
2 *239:6 *239:5 9.28235
3 *587:A2 *239:6 10.1476
4 *239:4 *581:ZN 5.15056
5 *239:5 *239:4 0.255108
6 *602:B *239:5 4.62043
*END

*D_NET *240 0.00933695

*CONN
*I *602:A2 I *C 266.95 2.84 *L 0.000432 *D AOI211D0BWP
*I *582:A4 I *C 269.89 2.84 *L 0.000602 *D NR4D0BWP
*I *581:A1 I *C 267.93 2.7 *L 0.000443 *D NR2D0BWP
*I *579:ZN O *C 215.99 2.98 *L 0 *D INVD0BWP

*CAP
1 *582:A4 0.000175536
2 *581:A1 8.52346e-06
3 *602:A2 1.00136e-05
4 *579:ZN 0.000492096
5 *240:4 0.000303626
6 *240:5 0.00028187
7 *240:6 0.0004282
8 *240:7 0.000389099
9 *240:8 0.00189936
10 *240:9 0.000725389
11 *240:10 0.00201947
12 *240:9 *457:CP 1.75834e-05
13 *240:9 *458:CP 4.34518e-05
14 *240:9 *459:CP 4.19021e-05
15 *240:8 *462:CP 5.0962e-05
16 *240:8 *40:97 6.97374e-06
17 *240:8 *479:CP 7.45058e-06
18 *240:8 *445:CP 1.96099e-05
19 *240:9 *49:67 0.000207365
20 *579:ZN *49:68 0.000207365
21 *240:9 *177:2 0.000101805
22 *240:9 *361:I 0.000141621
23 *240:9 *6:2 0.000102639
24 *240:8 *250:6 0.00039041
25 *240:8 *514:A3 0.000156403
26 *240:8 *427:I 8.21948e-05
27 *240:8 *419:I 0.000109911
28 *240:8 *411:I 0.000112891
29 *240:7 *445:D 9.64403e-05
30 *240:6 *57:6 0.000313997
31 *240:6 *233:4 0.000392795

*RES
1 *240:10 *240:9 4.83906
2 *240:9 *579:ZN 20.2304
3 *240:8 *240:10 44.1699
4 *240:7 *240:8 10.5337
5 *240:6 *240:7 14.8975
6 *602:A2 *240:5 3.8203
7 *240:5 *240:6 10.4524
8 *240:4 *240:5 9.50086
9 *581:A1 *240:4 3.82006
10 *582:A4 *240:4 7.97641
*END

*D_NET *241 0.000497103

*CONN
*I *378:I I *C 267.09 4.1 *L 0.000884 *D DEL050D1BWP
*I *581:A2 I *C 268.21 2.84 *L 0.00046 *D NR2D0BWP
*I *580:ZN O *C 268.35 3.54 *L 0 *D INVD0BWP

*CAP
1 *580:ZN 1.26362e-05
2 *581:A2 0.000126243
3 *378:I 7.12275e-05
4 *241:3 0.000164688
5 *241:4 0.000122309

*RES
1 *378:I *241:4 5.26202
2 *581:A2 *241:3 7.81262
3 *241:4 *580:ZN 3.86548
4 *241:3 *241:4 2.23947
*END

*D_NET *242 0.00140923

*CONN
*I *603:B I *C 274.93 3.68 *L 0.000441 *D AOI211D0BWP
*I *592:A2 I *C 280.25 2.7 *L 0.000425 *D OA211D0BWP
*I *591:A2 I *C 279.69 2.84 *L 0.000441 *D CKND2D0BWP
*I *590:ZN O *C 275.21 5.36 *L 0 *D NR2D0BWP

*CAP
1 *592:A2 4.28557e-05
2 *591:A2 9.47714e-06
3 *590:ZN 2.0206e-05
4 *603:B 5.42402e-05
5 *242:4 0.000275135
6 *242:5 7.98702e-05
7 *242:6 0.000336707
8 *242:4 *49:44 0.000198662
9 *242:4 *265:6 0.000258446
10 *242:4 *605:A2 0.000133634

*RES
1 *603:B *242:6 8.33237
2 *242:6 *242:5 4.74417
3 *242:5 *590:ZN 4.01568
4 *242:4 *242:6 22.6176
5 *591:A2 *242:4 3.82018
6 *592:A2 *242:4 4.97878
*END

*D_NET *243 0.00332749

*CONN
*I *603:A2 I *C 275.21 3.68 *L 0.000432 *D AOI211D0BWP
*I *590:A1 I *C 275.35 5.22 *L 0.000443 *D NR2D0BWP
*I *588:C I *C 264.01 3.68 *L 0.000526 *D OA211D0BWP
*I *587:ZN O *C 265.27 5.5 *L 0 *D CKND2D0BWP

*CAP
1 *590:A1 0.000146508
2 *603:A2 0.000144184
3 *587:ZN 1.18017e-05
4 *588:C 0.000125527
5 *243:4 0.000805557
6 *243:5 0.00058037
7 *243:6 0.000179231
8 *243:4 *321:3 0.000200272
9 *243:4 *583:A2 0.000243425
10 *243:4 *383:I 0.000138283
11 *243:4 *73:4 0.00075233

*RES
1 *588:C *243:6 7.24208
2 *243:6 *243:5 5.11539
3 *243:5 *587:ZN 3.86631
4 *603:A2 *243:4 7.93898
5 *590:A1 *243:4 8.17156
6 *243:4 *243:5 29.6869
*END

*D_NET *244 0.000619292

*CONN
*I *380:I I *C 276.05 4.1 *L 0.000884 *D DEL050D1BWP
*I *590:A2 I *C 275.63 5.36 *L 0.00046 *D NR2D0BWP
*I *589:ZN O *C 276.61 3.54 *L 0 *D INVD0BWP

*CAP
1 *589:ZN 4.52399e-05
2 *380:I 7.06315e-05
3 *590:A2 0.00012809
4 *244:3 0.000110924
5 *244:4 0.000264406

*RES
1 *590:A2 *244:4 7.72619
2 *380:I *244:4 4.53687
3 *244:3 *589:ZN 2.55919
4 *244:4 *244:3 2.6027
*END

*D_NET *245 0.000801921

*CONN
*I *605:A2 I *C 279.27 3.68 *L 0.000432 *D AOI211D0BWP
*I *604:A1 I *C 278.99 2.7 *L 0.000443 *D NR2D0BWP
*I *592:C I *C 280.81 2.84 *L 0.000526 *D OA211D0BWP
*I *591:ZN O *C 280.11 2.98 *L 0 *D CKND2D0BWP

*CAP
1 *592:C 7.77841e-05
2 *591:ZN 7.15256e-06
3 *605:A2 4.20213e-05
4 *604:A1 4.28557e-05
5 *245:4 1.31726e-05
6 *245:5 0.000176191
7 *245:6 0.000177264
8 *604:A1 *255:5 0.000131845
9 *605:A2 *242:4 0.000133634

*RES
1 *604:A1 *245:6 9.24933
2 *245:6 *245:5 5.96547
3 *605:A2 *245:6 9.23061
4 *245:4 *591:ZN 4.09639
5 *245:5 *245:4 0.25332
6 *592:C *245:5 5.39815
*END

*D_NET *246 0.000827074

*CONN
*I *379:I I *C 280.11 4.1 *L 0.000884 *D DEL050D1BWP
*I *604:A2 I *C 278.71 2.84 *L 0.00046 *D NR2D0BWP
*I *506:ZN O *C 278.01 2.98 *L 0 *D INVD0BWP

*CAP
1 *379:I 0.00027132
2 *604:A2 1.32918e-05
3 *506:ZN 5.31673e-05
4 *246:3 0.00033778
5 *379:I *255:5 0.000151515

*RES
1 *246:3 *506:ZN 2.72751
2 *604:A2 *246:3 3.8594
3 *379:I *246:3 11.7822
*END

*D_NET *247 0.000934005

*CONN
*I *606:A2 I *C 58.07 3.82 *L 0.000418 *D AOI21D0BWP
*I *596:B I *C 54.71 2.7 *L 0.00048 *D OAI21D0BWP
*I *595:ZN O *C 56.11 3.54 *L 0 *D INVD0BWP

*CAP
1 *606:A2 0.000174999
2 *595:ZN 2.52128e-05
3 *596:B 4.61936e-05
4 *247:3 0.000315726
5 *247:4 0.000157297
6 *247:5 8.79765e-05
7 *596:B *183:4 0.0001266

*RES
1 *596:B *247:5 6.00815
2 *247:5 *247:4 2.31564
3 *247:4 *247:3 3.67463
4 *247:3 *595:ZN 2.28357
5 *606:A2 *247:3 5.48589
*END

*D_NET *248 0.00258851

*CONN
*I *606:A1 I *C 58.35 3.68 *L 0.00042 *D AOI21D0BWP
*I *598:A2 I *C 63.11 3.68 *L 0.000441 *D CKND2D0BWP
*I *597:ZN O *C 71.23 4.24 *L 0 *D IND3D0BWP

*CAP
1 *597:ZN 2.58088e-05
2 *598:A2 1.66893e-05
3 *606:A1 0.000316739
4 *248:3 0.000534356
5 *248:4 0.000660181
6 *248:5 0.000485063
7 *606:A1 *606:B 0.000299573
8 *248:4 *251:13 0.000250101

*RES
1 *606:A1 *248:5 16.8638
2 *248:5 *248:4 6.21116
3 *598:A2 *248:5 2.00677
4 *248:4 *248:3 13.878
5 *248:3 *597:ZN 2.21908
*END

*D_NET *249 0.00513971

*CONN
*I *608:A2 I *C 84.39 5.22 *L 0.000418 *D AOI21D0BWP
*I *607:A2 I *C 79.63 5.22 *L 0.000418 *D AOI21D0BWP
*I *562:A2 I *C 97.83 5.22 *L 0.00118 *D NR2D2BWP
*I *558:A2 I *C 97.13 3.68 *L 0.00046 *D NR2D0BWP
*I *554:A2 I *C 78.79 3.68 *L 0.00046 *D NR2D0BWP
*I *543:A1 I *C 87.05 3.82 *L 0.000569 *D CKND2D1BWP
*I *541:ZN O *C 86.77 5.5 *L 0 *D INVD0BWP

*CAP
1 *562:A2 5.47171e-05
2 *558:A2 6.75321e-05
3 *543:A1 5.93662e-05
4 *541:ZN 1.26362e-05
5 *608:A2 3.50475e-05
6 *607:A2 4.20809e-05
7 *554:A2 0.000117242
8 *249:7 0.00014329
9 *249:8 9.70364e-05
10 *249:9 0.000171781
11 *249:10 0.000105143
12 *249:11 0.000133693
13 *249:12 0.000229657
14 *249:13 0.000104368
15 *249:14 0.000485241
16 *249:15 0.000463247
17 *249:15 *268:38 0.00020206
18 *249:15 *312:7 0.000556588
19 *249:11 *251:10 0.000117898
20 *249:8 *311:10 0.00104928
21 *249:8 *160:5 0.000808477
22 *558:A2 *314:10 8.33273e-05

*RES
1 *554:A2 *249:15 5.35548
2 *249:15 *249:14 14.9664
3 *249:13 *249:15 2.82681
4 *607:A2 *249:13 2.93052
5 *608:A2 *249:14 4.38678
6 *249:14 *249:12 3.86679
7 *249:12 *541:ZN 3.82018
8 *543:A1 *249:11 8.64565
9 *249:11 *249:12 3.64172
10 *249:10 *249:11 4.05264
11 *249:9 *249:8 3.96383
12 *249:8 *249:10 22.716
13 *249:7 *249:9 5.19156
14 *558:A2 *249:9 9.08804
15 *562:A2 *249:7 4.64952
*END

*D_NET *250 0.0300914

*CONN
*I *609:B1 I *C 82.71 3.68 *L 0.00045 *D IND2D0BWP
*I *597:B1 I *C 71.23 3.68 *L 0.000465 *D IND3D0BWP
*I *586:A2 I *C 127.51 5.22 *L 0.00177 *D NR2D3BWP
*I *585:Z O *C 256.87 2.84 *L 0 *D AN4D2BWP

*CAP
1 *585:Z 1.59144e-05
2 *586:A2 5.43594e-05
3 *609:B1 1.28746e-05
4 *597:B1 0.000117064
5 *250:4 5.21541e-05
6 *250:5 0.000807643
7 *250:6 0.000919879
8 *250:7 0.000333846
9 *250:8 0.000195444
10 *250:9 0.000115514
11 *250:10 0.00029254
12 *250:11 0.000339746
13 *250:12 0.000160217
14 *250:13 0.000265002
15 *250:14 0.000365913
16 *250:15 0.000412285
17 *250:16 0.000314772
18 *250:17 0.000174403
19 *250:18 0.000287354
20 *250:19 0.000347495
21 *250:20 0.000233233
22 *250:21 0.000247061
23 *250:22 0.000384808
24 *250:23 0.000261009
25 *250:24 0.000309348
26 *250:25 0.000658214
27 *250:26 0.00027442
28 *250:27 0.000155628
29 *250:28 0.000126302
30 *250:29 0.000276506
31 *250:30 0.000569463
32 *250:30 *311:10 0.000460237
33 *250:30 *311:9 1.44839e-05
34 *250:29 *311:18 0.000567883
35 *250:25 *311:11 0.000472456
36 *250:25 *311:17 0.000204563
37 *250:25 *311:18 1.75834e-05
38 *250:25 *311:9 0.000598788
39 *250:24 *311:9 0.000585705
40 *250:30 *260:8 0.000380516
41 *250:25 *260:9 0.000380516
42 *250:29 *646:A3 0.000109971
43 *250:29 *74:16 0.000658333
44 *250:24 *74:16 1.75238e-05
45 *250:23 *74:16 2.563e-06
46 *250:23 *74:15 6.18696e-05
47 *250:23 *74:14 4.88758e-06
48 *250:22 *74:14 4.58956e-06
49 *250:22 *74:12 0.000369132
50 *250:20 *74:12 0.000347197
51 *250:19 *74:12 4.11272e-06
52 *250:19 *74:11 1.5378e-05
53 *250:19 *74:10 4.05312e-06
54 *250:18 *74:10 0.00052923
55 *250:16 *74:10 0.000599325
56 *250:16 *74:18 3.98159e-05
57 *250:15 *74:18 0.000114679
58 *250:15 *74:17 3.8743e-06
59 *250:15 *74:9 1.04308e-05
60 *250:14 *74:9 0.000601709
61 *250:12 *74:9 0.000313818
62 *250:11 *74:9 0.00019908
63 *250:11 *74:20 4.05908e-05
64 *250:10 *74:19 2.68221e-06
65 *250:10 *74:8 4.11272e-06
66 *250:8 *74:8 0.000520527
67 *250:7 *74:8 3.35574e-05
68 *250:29 *639:B 0.000420153
69 *250:28 *130:5 0.000519842
70 *250:27 *130:4 0.000543147
71 *597:B1 *130:4 3.63588e-05
72 *250:28 *104:6 0.000513554
73 *250:27 *104:5 0.000513554
74 *250:25 *672:A2 0.000472307
75 *250:25 *253:9 0.000638127
76 *250:25 *195:8 0.000140786
77 *250:23 *42:17 0.000343204
78 *250:20 *42:14 0.000199318
79 *250:19 *42:14 5.32866e-05
80 *250:19 *42:13 0.000142038
81 *250:18 *42:11 3.8743e-06
82 *250:16 *42:12 0.000515252
83 *250:15 *42:7 6.07967e-06
84 *250:15 *42:10 0.000515252
85 *250:14 *42:7 7.39098e-06
86 *250:12 *42:6 0.000503063
87 *250:11 *42:4 0.000291765
88 *250:10 *42:4 6.67572e-05
89 *250:10 *42:3 5.78165e-06
90 *250:22 *215:4 0.000139594
91 *250:22 *182:4 0.000627697
92 *250:21 *182:3 0.000627697
93 *250:20 *355:7 0.000128269
94 *250:20 *669:A1 0.000109017
95 *250:19 *353:5 9.81688e-05
96 *250:18 *180:7 0.000593662
97 *250:15 *15:7 0.000370026
98 *250:14 *15:6 0.000370026
99 *250:15 *174:3 0.000285327
100 *250:14 *222:5 0.000234485
101 *250:11 *513:A4 0.000120997
102 *250:10 *40:101 0.000247628
103 *250:10 *40:100 0.000132143
104 *250:9 *40:100 0.000247628
105 *250:9 *40:99 0.000132143
106 *250:8 *40:99 0.000109255
107 *250:8 *40:98 4.48823e-05
108 *250:8 *40:96 0.000159264
109 *250:8 *40:93 1.90735e-06
110 *250:8 *40:92 7.27773e-05
111 *250:7 *40:92 0.000109732
112 *250:7 *40:95 0.000104427
113 *250:10 *49:61 0.00033927
114 *250:10 *341:5 0.000467896
115 *250:6 *240:8 0.00039041

*RES
1 *250:30 *250:29 1.01817
2 *250:28 *250:27 27.9709
3 *597:B1 *250:28 7.07543
4 *250:27 *250:26 6.44183
5 *250:26 *250:25 5.23353
6 *609:B1 *250:26 3.88467
7 *250:25 *250:30 51.967
8 *250:29 *250:24 26.1815
9 *250:24 *250:23 2.99227
10 *250:23 *250:22 14.3032
11 *586:A2 *250:23 4.45962
12 *250:22 *250:21 20.1131
13 *250:20 *250:19 12.9298
14 *250:21 *250:20 0.255227
15 *250:19 *250:18 7.52068
16 *250:18 *250:17 14.5496
17 *250:17 *250:16 0.255227
18 *250:16 *250:15 28.1123
19 *250:15 *250:14 11.9177
20 *250:14 *250:13 17.1951
21 *250:13 *250:12 0.255227
22 *250:12 *250:11 13.8519
23 *250:11 *250:10 12.0723
24 *250:10 *250:9 20.0235
25 *250:8 *250:7 14.3462
26 *250:9 *250:8 0.255227
27 *250:7 *250:6 8.98039
28 *250:6 *250:5 17.7903
29 *250:4 *585:Z 3.98648
30 *250:5 *250:4 0.714183
*END

*D_NET *251 0.0126412

*CONN
*I *609:A1 I *C 83.27 3.82 *L 0.00047 *D IND2D0BWP
*I *553:A2 I *C 137.03 3.68 *L 0.00046 *D NR2D0BWP
*I *548:A2 I *C 136.75 5.36 *L 0.000587 *D NR2XD0BWP
*I *546:A2 I *C 69.13 3.68 *L 0.00046 *D NR2D0BWP
*I *545:ZN O *C 87.05 4.8 *L 0 *D CKND2D1BWP

*CAP
1 *553:A2 7.64728e-05
2 *548:A2 0.000106871
3 *545:ZN 2.59876e-05
4 *609:A1 0.000132442
5 *546:A2 0.000119269
6 *251:5 0.000204086
7 *251:6 0.00117105
8 *251:7 0.000644267
9 *251:8 0.000288308
10 *251:9 5.82933e-05
11 *251:10 0.000360012
12 *251:11 0.00062108
13 *251:12 0.000797868
14 *251:13 0.000698924
15 *251:14 0.000422955
16 *251:15 0.00116003
17 *251:14 *449:CP 4.52995e-05
18 *251:14 *40:149 8.70228e-05
19 *251:13 *454:CP 5.60284e-06
20 *251:7 *40:150 8.70228e-05
21 *251:13 *131:60 0.000101209
22 *251:13 *331:8 0.000210285
23 *251:13 *248:4 0.000250101
24 *251:13 *130:4 6.33001e-05
25 *251:12 *130:4 2.2769e-05
26 *251:11 *130:4 3.33786e-05
27 *251:12 *332:3 0.000123143
28 *251:10 *545:A2 0.00017643
29 *251:10 *249:11 0.000117898
30 *251:7 *160:5 0.00121701
31 *251:7 *104:4 0.000715613
32 *251:6 *314:8 0.000909448
33 *251:6 *103:4 0.000447392
34 *251:6 *190:2 0.000854492
35 *251:6 *639:A3 0.000197649
36 *251:6 *474:D 8.82745e-05

*RES
1 *251:15 *251:14 0.305653
2 *546:A2 *251:13 7.11393
3 *251:13 *251:12 18.8934
4 *251:12 *251:11 4.87673
5 *609:A1 *251:11 7.34115
6 *251:11 *251:10 10.0483
7 *251:10 *251:9 6.47259
8 *251:9 *545:ZN 4.63903
9 *251:8 *251:10 6.52075
10 *251:7 *251:8 19.75
11 *251:14 *251:7 23.1326
12 *251:6 *251:15 42.5638
13 *251:5 *251:6 3.96049
14 *548:A2 *251:5 9.17602
15 *553:A2 *251:5 8.87585
*END

*D_NET *252 0.000341415

*CONN
*I *610:B2 I *C 81.17 3.96 *L 0.000475 *D OAI22D0BWP
*I *609:ZN O *C 82.71 4.1 *L 0 *D IND2D0BWP

*CAP
1 *610:B2 4.70877e-05
2 *609:ZN 0.00012362
3 *252:2 0.000170708

*RES
1 *252:2 *609:ZN 4.09472
2 *610:B2 *252:2 4.65739
*END

*D_NET *253 0.0134788

*CONN
*I *610:B1 I *C 81.45 3.82 *L 0.000441 *D OAI22D0BWP
*I *606:B I *C 58.77 3.82 *L 0.000468 *D AOI21D0BWP
*I *586:A1 I *C 126.95 5.22 *L 0.0016 *D NR2D3BWP
*I *537:A1 I *C 64.37 5.22 *L 0.000443 *D NR2D0BWP
*I *526:A1 I *C 130.87 5.22 *L 0.000443 *D NR2D0BWP
*I *525:ZN O *C 63.95 5.5 *L 0 *D CKND1BWP

*CAP
1 *526:A1 0.00026083
2 *586:A1 1.20401e-05
3 *610:B1 0.000109851
4 *537:A1 2.45571e-05
5 *525:ZN 1.04904e-05
6 *606:B 0.000161946
7 *253:6 0.000159323
8 *253:7 0.000340641
9 *253:8 0.000128567
10 *253:9 0.000411272
11 *253:10 0.000205219
12 *253:11 0.000172555
13 *253:12 0.00036478
14 *253:13 0.000263214
15 *253:14 0.000142574
16 *253:15 0.000236571
17 *253:16 0.000352383
18 *253:17 9.42946e-05
19 *253:18 0.000427127
20 *253:18 *268:31 0.000579
21 *253:9 *268:30 0.000579
22 *253:18 *260:9 0.000917852
23 *253:9 *260:8 0.000917852
24 *253:18 *313:7 0.00112981
25 *253:9 *313:6 0.00112981
26 *253:18 *608:B 0.000407815
27 *606:B *606:A1 0.000299573
28 *606:B *185:3 8.45194e-05
29 *253:12 *261:4 0.000137448
30 *253:12 *160:9 0.000102162
31 *253:12 *502:D 0.000377178
32 *253:9 *286:7 8.34465e-05
33 *253:9 *250:25 0.000638127
34 *253:9 *639:B 0.000523448
35 *253:6 *159:7 0.000216842
36 *253:6 *74:16 0.000639677
37 *253:6 *195:2 0.000543952
38 *526:A1 *82:9 0.000293016

*RES
1 *253:18 *253:17 19.9538
2 *606:B *253:16 8.95786
3 *253:16 *253:15 6.99484
4 *253:15 *525:ZN 2.00677
5 *253:14 *253:15 0.917554
6 *537:A1 *253:14 2.21908
7 *253:13 *253:14 4.87399
8 *253:12 *253:13 12.6693
9 *610:B1 *253:11 5.36358
10 *253:11 *253:10 2.23172
11 *253:10 *253:12 14.5501
12 *253:17 *253:11 2.48849
13 *253:9 *253:18 56.3128
14 *253:8 *253:9 2.32029
15 *586:A1 *253:7 2.00677
16 *253:6 *253:8 16.4852
17 *253:7 *253:6 4.67801
18 *526:A1 *253:7 10.0087
*END

*D_NET *254 0.00136876

*CONN
*I *610:A1 I *C 80.61 3.68 *L 0.00042 *D OAI22D0BWP
*I *608:B I *C 83.69 5.22 *L 0.000468 *D AOI21D0BWP
*I *607:ZN O *C 80.05 5.5 *L 0 *D AOI21D0BWP

*CAP
1 *608:B 0.00023073
2 *610:A1 0.000170708
3 *607:ZN 7.90358e-05
4 *254:3 0.000480473
5 *608:B *253:18 0.000407815

*RES
1 *254:3 *607:ZN 6.37257
2 *610:A1 *254:3 6.25539
3 *608:B *254:3 20.3556
*END

*D_NET *255 0.00105977

*CONN
*I *612:A2 I *C 280.25 5.22 *L 0.000425 *D OA211D0BWP
*I *611:A2 I *C 277.87 3.68 *L 0.000441 *D CKND2D0BWP
*I *605:B I *C 278.99 3.68 *L 0.000441 *D AOI211D0BWP
*I *604:ZN O *C 279.13 2.84 *L 0 *D NR2D0BWP

*CAP
1 *612:A2 0.000106037
2 *605:B 6.3777e-06
3 *604:ZN 1.26958e-05
4 *611:A2 2.44379e-05
5 *255:4 0.000191152
6 *255:5 0.000144958
7 *255:6 4.88162e-05
8 *255:7 5.45383e-05
9 *611:A2 *605:C 8.70228e-05
10 *611:A2 *262:4 0.000100374
11 *255:5 *604:A1 0.000131845
12 *255:5 *379:I 0.000151515

*RES
1 *611:A2 *255:7 6.14107
2 *255:6 *604:ZN 4.13775
3 *255:7 *255:5 3.96025
4 *255:5 *255:6 6.66893
5 *255:4 *255:5 6.25432
6 *605:B *255:7 3.88694
7 *612:A2 *255:4 6.22034
*END

*D_NET *256 0.0079481

*CONN
*I *613:B I *C 232.37 2.7 *L 0.00048 *D OAI21D0BWP
*I *600:A1 I *C 191.35 2.84 *L 0.00042 *D OAI22D0BWP
*I *594:A1 I *C 199.33 2.84 *L 0.00042 *D AOI21D0BWP
*I *593:A1 I *C 197.93 3.82 *L 0.000443 *D NR2D0BWP
*I *575:B I *C 222.43 3.82 *L 0.000474 *D OA211D0BWP
*I *574:B I *C 229.71 2.7 *L 0.000474 *D OA211D0BWP
*I *572:ZN O *C 216.55 3.54 *L 0 *D INVD0BWP

*CAP
1 *613:B 0.000160933
2 *574:B 7.25389e-05
3 *575:B 1.37687e-05
4 *572:ZN 9.81688e-05
5 *594:A1 0.000144124
6 *593:A1 0.000142515
7 *600:A1 0.000211775
8 *256:7 0.000640094
9 *256:8 0.000635028
10 *256:9 0.000548899
11 *256:10 0.000323772
12 *256:11 0.00100827
13 *256:12 0.00092876
14 *256:13 0.000380576
15 *600:A1 *76:12 0.000607133
16 *600:A1 *63:4 0.000587583
17 *256:12 *330:4 0.000219822
18 *256:12 *90:6 0.000167966
19 *593:A1 *40:111 1.60933e-06
20 *256:7 *40:102 1.97291e-05
21 *256:7 *40:101 0.000107288
22 *256:7 *40:100 0.000118911
23 *256:9 *210:6 0.000228047
24 *256:8 *227:4 9.53674e-05
25 *574:B *75:13 8.9407e-05
26 *256:7 *49:65 0.000276923
27 *613:B *41:2 0.00011909

*RES
1 *600:A1 *256:13 23.6768
2 *256:12 *256:11 30.1911
3 *256:10 *256:12 6.57761
4 *256:13 *256:10 3.91936
5 *593:A1 *256:10 9.83155
6 *594:A1 *256:13 15.5699
7 *256:11 *256:9 12.7106
8 *256:9 *572:ZN 8.70156
9 *256:8 *256:9 5.8856
10 *575:B *256:8 3.86643
11 *574:B *256:7 12.5583
12 *256:7 *256:8 22.9574
13 *613:B *256:7 15.4763
*END

*D_NET *257 0.000612259

*CONN
*I *614:B I *C 233.91 3.82 *L 0.000468 *D AOI21D0BWP
*I *613:ZN O *C 232.51 2.84 *L 0 *D OAI21D0BWP

*CAP
1 *613:ZN 9.43542e-05
2 *614:B 0.00014621
3 *257:2 0.000240564
4 *257:2 *340:5 0.00013113

*RES
1 *614:B *257:2 10.3701
2 *257:2 *613:ZN 10.9178
*END

*D_NET *258 0.0011152

*CONN
*I *614:A2 I *C 233.21 3.82 *L 0.000418 *D AOI21D0BWP
*I *613:A2 I *C 232.93 2.7 *L 0.000446 *D OAI21D0BWP
*I *578:B I *C 231.53 3.68 *L 0.000441 *D AOI211D0BWP
*I *577:ZN O *C 231.11 2.84 *L 0 *D NR2D0BWP

*CAP
1 *614:A2 8.10623e-05
2 *613:A2 4.19021e-05
3 *577:ZN 2.03252e-05
4 *578:B 0.000124514
5 *258:4 0.000264287
6 *258:5 0.000286162
7 *578:B *578:A2 0.00011003
8 *258:5 *514:A3 0.00018692

*RES
1 *578:B *258:5 12.6312
2 *258:5 *577:ZN 4.79627
3 *613:A2 *258:4 8.11303
4 *258:4 *258:5 7.30991
5 *614:A2 *258:4 9.39453
*END

*D_NET *259 0.0040952

*CONN
*I *615:B1 I *C 70.39 5.22 *L 0.000473 *D OAI32D0BWP
*I *557:A2 I *C 89.57 3.68 *L 0.000441 *D CKND2D0BWP
*I *555:A3 I *C 73.89 3.82 *L 0.000469 *D AN3D0BWP
*I *538:A2 I *C 71.79 5.36 *L 0.000441 *D CKND2D0BWP
*I *522:A2 I *C 88.87 5.36 *L 0.000587 *D NR2XD0BWP
*I *521:ZN O *C 72.63 3.54 *L 0 *D INVD0BWP

*CAP
1 *557:A2 5.24521e-06
2 *522:A2 0.00010097
3 *555:A3 9.35793e-06
4 *538:A2 1.07288e-05
5 *521:ZN 0.000142634
6 *615:B1 0.000114739
7 *259:6 0.000447392
8 *259:7 4.63724e-05
9 *259:8 0.000735998
10 *259:9 0.00044781
11 *259:10 0.00011903
12 *259:11 0.000161648
13 *259:12 0.000237048
14 *259:8 *268:38 0.000361681
15 *259:8 *315:14 0.000343323
16 *259:8 *312:7 0.000651598
17 *557:A2 *157:4 0.000159621

*RES
1 *615:B1 *259:12 6.18136
2 *259:11 *521:ZN 4.85349
3 *259:12 *259:11 9.27019
4 *538:A2 *259:12 3.82018
5 *555:A3 *259:10 3.82638
6 *259:10 *521:ZN 5.99837
7 *259:9 *259:10 0.364184
8 *259:8 *259:9 19.8263
9 *259:7 *259:6 4.41825
10 *259:6 *259:8 12.7426
11 *522:A2 *259:6 9.62698
12 *557:A2 *259:7 5.54955
*END

*D_NET *260 0.0134449

*CONN
*I *615:A3 I *C 69.97 5.08 *L 0.000441 *D OAI32D0BWP
*I *597:A1 I *C 70.81 3.82 *L 0.000473 *D IND3D0BWP
*I *551:A2 I *C 135.91 3.68 *L 0.00046 *D NR2D0BWP
*I *540:A2 I *C 100.21 5.36 *L 0.00046 *D NR2D0BWP
*I *539:ZN O *C 85.37 4.8 *L 0 *D CKND2D1BWP

*CAP
1 *551:A2 4.36306e-05
2 *540:A2 2.49743e-05
3 *539:ZN 8.31485e-05
4 *597:A1 9.41753e-05
5 *615:A3 9.75728e-05
6 *260:5 0.000127554
7 *260:6 0.00125992
8 *260:7 0.000701368
9 *260:8 0.000376582
10 *260:9 0.000126779
11 *260:10 0.00015229
12 *260:11 0.000227869
13 *260:12 0.000295877
14 *260:13 0.000136733
15 *260:14 0.000217199
16 *260:15 0.000510931
17 *260:16 0.00128621
18 *260:16 *160:3 0.000739634
19 *260:6 *160:2 0.000739634
20 *260:16 *130:3 2.51532e-05
21 *260:6 *130:3 8.2612e-05
22 *260:6 *130:2 3.12328e-05
23 *260:16 *189:4 0.000295401
24 *260:15 *30:2 0.000139236
25 *615:A3 *615:A2 0.000107944
26 *260:13 *313:13 0.000201106
27 *260:13 *331:7 0.000444889
28 *260:9 *253:18 0.000917852
29 *260:8 *253:9 0.000917852
30 *260:9 *250:25 0.000380516
31 *260:8 *250:30 0.000380516
32 *260:8 *672:A2 0.000470936
33 *260:7 *218:3 0.000129342
34 *260:6 *131:39 0.000124216
35 *260:6 *314:7 0.000424147
36 *260:6 *286:5 0.000310004
37 *260:6 *282:5 0.000494123
38 *260:6 *85:7 0.000109792
39 *260:6 *52:2 9.63211e-05
40 *260:6 *279:2 0.000119627

*RES
1 *260:16 *260:15 4.51326
2 *615:A3 *260:14 8.45754
3 *260:14 *260:13 2.23172
4 *260:13 *260:12 12.4643
5 *597:A1 *260:14 5.00786
6 *260:12 *260:11 11.5384
7 *260:11 *260:10 2.46918
8 *260:10 *539:ZN 6.603
9 *260:9 *260:10 2.18809
10 *260:8 *260:9 30.1045
11 *260:7 *260:8 10.0442
12 *540:A2 *260:7 2.11716
13 *260:15 *260:7 13.6797
14 *260:6 *260:16 53.2207
15 *260:5 *260:6 4.91822
16 *551:A2 *260:5 6.31142
*END

*D_NET *261 0.00298357

*CONN
*I *615:B2 I *C 70.11 5.22 *L 0.000468 *D OAI32D0BWP
*I *615:A1 I *C 69.55 5.22 *L 0.00046 *D OAI32D0BWP
*I *599:A2 I *C 55.13 5.36 *L 0.000441 *D CKND2D0BWP
*I *598:ZN O *C 63.53 3.54 *L 0 *D CKND2D0BWP

*CAP
1 *615:B2 6.6936e-05
2 *615:A1 1.04308e-05
3 *598:ZN 0.000124216
4 *599:A2 0.000205159
5 *261:4 0.000287175
6 *261:5 0.000166178
7 *261:6 0.000427127
8 *261:7 0.000380516
9 *599:A2 *40:166 3.55244e-05
10 *261:7 *40:166 0.000148833
11 *261:7 *40:165 1.01328e-06
12 *261:7 *40:164 9.29534e-05
13 *261:6 *40:164 0.000168413
14 *261:6 *40:162 9.29534e-05
15 *261:4 *40:162 0.000239164
16 *261:7 *160:9 0.000122905
17 *261:5 *598:A1 0.000121117
18 *261:4 *253:12 0.000137448
19 *261:4 *502:D 0.000155509

*RES
1 *599:A2 *261:7 11.1417
2 *261:7 *261:6 11.8129
3 *261:5 *598:ZN 7.23433
4 *261:6 *261:5 2.27022
5 *615:A1 *261:4 3.88491
6 *261:4 *261:6 16.5255
7 *615:B2 *261:4 3.23486
*END

*D_NET *262 0.00224245

*CONN
*I *618:A2 I *C 271.99 2.84 *L 0.000432 *D AOI211D0BWP
*I *617:A1 I *C 271.01 2.7 *L 0.000443 *D NR2D0BWP
*I *612:C I *C 280.81 5.36 *L 0.000526 *D OA211D0BWP
*I *611:ZN O *C 277.45 3.54 *L 0 *D CKND2D0BWP

*CAP
1 *612:C 0.000101507
2 *611:ZN 1.13845e-05
3 *618:A2 8.70228e-06
4 *617:A1 8.91685e-05
5 *262:4 0.00040555
6 *262:5 0.00074172
7 *262:6 0.000524163
8 *262:6 *583:A1 0.000259876
9 *262:4 *611:A2 0.000100374

*RES
1 *617:A1 *262:6 5.81527
2 *262:6 *262:5 10.7723
3 *618:A2 *262:6 3.8203
4 *262:5 *611:ZN 3.82042
5 *262:4 *262:5 14.2981
6 *612:C *262:4 5.88787
*END

*D_NET *263 0.000777125

*CONN
*I *383:I I *C 273.53 4.1 *L 0.000884 *D DEL050D1BWP
*I *617:A2 I *C 270.73 2.84 *L 0.00046 *D NR2D0BWP
*I *616:ZN O *C 270.45 2.98 *L 0 *D INVD0BWP

*CAP
1 *383:I 0.000121176
2 *617:A2 9.11951e-06
3 *616:ZN 2.98619e-05
4 *263:3 0.000217676
5 *263:4 0.000135481
6 *383:I *49:44 0.000125527
7 *383:I *243:4 0.000138283

*RES
1 *263:4 *616:ZN 2.32005
2 *617:A2 *263:4 3.82638
3 *263:3 *263:4 9.53496
4 *383:I *263:3 9.43637
*END

*D_NET *264 0.00240839

*CONN
*I *620:A2 I *C 258.97 2.7 *L 0.000425 *D OA211D0BWP
*I *619:A2 I *C 259.11 2.84 *L 0.000441 *D CKND2D0BWP
*I *618:B I *C 271.71 2.84 *L 0.000441 *D AOI211D0BWP
*I *617:ZN O *C 271.15 2.84 *L 0 *D NR2D0BWP

*CAP
1 *618:B 6.55055e-05
2 *617:ZN 0.000143349
3 *619:A2 9.11951e-06
4 *620:A2 2.39611e-05
5 *264:4 0.000296175
6 *264:5 0.000787675
7 *264:6 0.000650048
8 *264:7 0.000113785
9 *264:5 *265:10 0.00019753
10 *264:5 *239:4 0.000121236

*RES
1 *620:A2 *264:7 4.3143
2 *264:6 *264:5 12.8156
3 *264:7 *264:6 8.62062
4 *619:A2 *264:7 3.90196
5 *264:5 *264:4 5.9824
6 *264:4 *617:ZN 6.11138
7 *618:B *617:ZN 8.6633
*END

*D_NET *265 0.00327408

*CONN
*I *623:C I *C 262.19 2.7 *L 0.000457 *D AOI211D0BWP
*I *618:C I *C 271.43 2.7 *L 0.000457 *D AOI211D0BWP
*I *605:C I *C 278.71 3.82 *L 0.000457 *D AOI211D0BWP
*I *603:C I *C 274.65 3.82 *L 0.000457 *D AOI211D0BWP
*I *602:C I *C 267.51 2.7 *L 0.000457 *D AOI211D0BWP
*I *601:ZN O *C 272.97 2.98 *L 0 *D INVD0BWP

*CAP
1 *605:C 7.84993e-05
2 *603:C 4.33922e-05
3 *601:ZN 8.58307e-06
4 *618:C 5.23329e-05
5 *602:C 4.54187e-05
6 *623:C 0.000246286
7 *265:6 0.000234544
8 *265:7 0.000415504
9 *265:8 0.00028652
10 *265:9 0.00029707
11 *265:10 0.000474572
12 *623:C *233:4 0.000301838
13 *265:10 *268:14 0.000246525
14 *265:10 *264:5 0.00019753
15 *265:6 *242:4 0.000258446
16 *605:C *611:A2 8.70228e-05

*RES
1 *623:C *265:10 25.5085
2 *265:10 *265:9 11.5782
3 *602:C *265:10 7.95114
4 *618:C *265:9 4.91714
5 *265:9 *265:8 1.68824
6 *265:8 *601:ZN 3.82042
7 *265:7 *265:8 8.2258
8 *603:C *265:7 8.11994
9 *265:6 *265:7 17.7815
10 *605:C *265:6 6.37507
*END

*D_NET *266 0.000651121

*CONN
*I *623:A2 I *C 261.63 2.84 *L 0.000432 *D AOI211D0BWP
*I *622:A1 I *C 260.79 2.7 *L 0.000443 *D NR2D0BWP
*I *620:C I *C 258.41 2.84 *L 0.000526 *D OA211D0BWP
*I *619:ZN O *C 259.53 2.98 *L 0 *D CKND2D0BWP

*CAP
1 *623:A2 7.15256e-05
2 *622:A1 1.44243e-05
3 *619:ZN 1.01924e-05
4 *620:C 9.9957e-05
5 *266:4 0.000164747
6 *266:5 0.000188947
7 *266:4 *270:5 0.000101328

*RES
1 *620:C *266:5 5.58674
2 *266:5 *619:ZN 3.8203
3 *622:A1 *266:4 3.90506
4 *266:4 *266:5 2.22862
5 *623:A2 *266:4 5.86689
*END

*D_NET *267 0.000550866

*CONN
*I *377:I I *C 261.77 4.1 *L 0.000884 *D DEL050D1BWP
*I *622:A2 I *C 261.07 2.84 *L 0.00046 *D NR2D0BWP
*I *621:ZN O *C 262.61 3.54 *L 0 *D INVD0BWP

*CAP
1 *621:ZN 4.98891e-05
2 *377:I 7.27177e-06
3 *622:A2 9.2268e-05
4 *267:3 0.0001086
5 *267:4 0.000143707
6 *622:A2 *444:D 0.000149131

*RES
1 *622:A2 *267:4 11.0093
2 *267:4 *267:3 4.79066
3 *377:I *267:3 3.82042
4 *267:3 *621:ZN 4.8548
*END

*D_NET *268 0.0325176

*CONN
*I *624:B I *C 255.33 5.22 *L 0.00048 *D OAI21D0BWP
*I *620:B I *C 258.55 2.7 *L 0.000474 *D OA211D0BWP
*I *615:A2 I *C 69.69 5.22 *L 0.000442 *D OAI32D0BWP
*I *612:B I *C 280.67 5.22 *L 0.000474 *D OA211D0BWP
*I *608:A1 I *C 84.11 5.36 *L 0.00042 *D AOI21D0BWP
*I *607:B I *C 80.33 5.22 *L 0.000468 *D AOI21D0BWP
*I *601:I I *C 272.69 2.7 *L 0.000464 *D INVD0BWP
*I *592:B I *C 280.67 2.7 *L 0.000474 *D OA211D0BWP
*I *588:B I *C 264.15 3.82 *L 0.000474 *D OA211D0BWP
*I *586:ZN O *C 126.81 4.8 *L 0 *D NR2D3BWP

*CAP
1 *612:B 0.000207245
2 *592:B 6.28829e-05
3 *601:I 5.12004e-05
4 *588:B 4.86374e-05
5 *620:B 9.08971e-05
6 *624:B 5.32866e-05
7 *586:ZN 2.72393e-05
8 *608:A1 1.50204e-05
9 *607:B 5.126e-06
10 *615:A2 0.000113308
11 *268:10 0.00028497
12 *268:11 0.000180006
13 *268:12 0.000181258
14 *268:13 0.000148416
15 *268:14 0.000350535
16 *268:15 0.000371635
17 *268:16 0.000409126
18 *268:17 0.000624359
19 *268:18 0.000540018
20 *268:19 0.000647903
21 *268:20 0.000582397
22 *268:21 0.000518799
23 *268:22 0.000242651
24 *268:23 0.00024271
25 *268:24 0.000294328
26 *268:25 0.000458598
27 *268:26 0.00013417
28 *268:27 0.000306547
29 *268:28 0.000200748
30 *268:29 0.000180423
31 *268:30 0.000204504
32 *268:31 0.000202417
33 *268:32 0.000174403
34 *268:33 0.000259757
35 *268:34 0.000146806
36 *268:35 0.000197649
37 *268:36 0.000385463
38 *268:37 0.000400364
39 *268:38 0.000706971
40 *268:39 0.000654519
41 *268:40 0.00108474
42 *268:41 0.000392675
43 *268:42 0.000894368
44 *268:42 *143:11 0.0012013
45 *268:41 *143:12 0.000514805
46 *268:40 *143:11 4.41074e-05
47 *268:40 *143:3 0.000686496
48 *268:25 *143:14 0.000386477
49 *268:25 *143:12 1.10269e-05
50 *268:24 *143:12 0.000386477
51 *268:22 *143:12 0.000165045
52 *268:22 *143:11 0.000194371
53 *268:20 *143:3 4.27961e-05
54 *268:20 *571:A1 4.17233e-06
55 *268:42 *82:10 0.000976682
56 *268:42 *82:6 1.06096e-05
57 *268:41 *82:5 0.000486791
58 *268:40 *82:11 0.000979751
59 *268:40 *82:5 0.000400543
60 *268:27 *82:9 8.9407e-07
61 *268:20 *82:10 0.000397444
62 *268:20 *82:12 0.000489861
63 *268:19 *82:11 0.000233233
64 *268:19 *82:12 0.000449419
65 *268:18 *82:12 2.8491e-05
66 *268:40 *198:5 0.000655711
67 *268:20 *198:3 0.000655711
68 *615:A2 *615:A3 0.000107944
69 *615:A2 *17:4 0.000106692
70 *268:38 *249:15 0.00020206
71 *268:38 *259:8 0.000361681
72 *268:36 *314:13 0.000227571
73 *268:35 *333:7 0.000483811
74 *268:34 *333:6 0.000483811
75 *268:35 *313:7 0.000740886
76 *268:34 *313:6 0.000740886
77 *268:33 *96:4 0.000458717
78 *268:31 *253:18 0.000579
79 *268:30 *253:9 0.000579
80 *268:31 *195:6 0.000375569
81 *268:30 *195:4 0.000375569
82 *268:29 *159:7 0.000167489
83 *268:29 *182:6 0.000351369
84 *268:28 *182:5 0.000351369
85 *268:25 *181:10 0.000374496
86 *268:24 *181:9 0.000374496
87 *268:23 *196:4 0.000327885
88 *268:22 *196:3 0.000327885
89 *620:B *585:A1 0.000132322
90 *268:17 *73:6 0.000100672
91 *268:15 *74:6 0.000117421
92 *268:14 *265:10 0.000246525
93 *268:14 *90:5 0.000453234
94 *268:11 *49:43 0.00029707
95 *268:11 *582:A2 0.000122905
96 *268:11 *57:5 0.000267982

*RES
1 *268:42 *268:41 29.8318
2 *268:40 *268:42 40.929
3 *615:A2 *268:39 8.69989
4 *268:39 *268:38 11.7264
5 *268:38 *268:37 10.2152
6 *607:B *268:37 1.90485
7 *268:37 *268:36 5.89406
8 *268:36 *268:35 10.0825
9 *608:A1 *268:36 2.00689
10 *268:35 *268:34 29.6383
11 *268:34 *268:33 5.91588
12 *268:33 *268:32 12.1214
13 *268:31 *268:30 12.7661
14 *268:32 *268:31 0.153184
15 *268:30 *268:29 0.153184
16 *268:29 *268:28 14.9391
17 *268:28 *268:27 4.14526
18 *268:27 *268:26 3.48806
19 *268:25 *268:27 4.86267
20 *268:26 *586:ZN 2.21896
21 *268:24 *268:25 22.3558
22 *268:23 *268:24 0.255108
23 *268:41 *268:22 0.255108
24 *268:22 *268:23 18.3238
25 *268:21 *268:20 0.255108
26 *268:20 *268:40 40.8776
27 *268:19 *268:21 34.6746
28 *268:18 *268:19 7.34866
29 *624:B *268:18 8.38912
30 *620:B *268:17 10.7117
31 *268:17 *268:18 14.9585
32 *268:16 *268:15 7.24411
33 *268:15 *268:17 15.5751
34 *588:B *268:15 8.02267
35 *268:14 *268:16 13.204
36 *268:13 *268:14 5.15151
37 *268:12 *268:13 3.91483
38 *601:I *268:13 8.38935
39 *268:11 *268:12 12.8207
40 *268:10 *268:11 3.97623
41 *592:B *268:10 8.31103
42 *612:B *268:10 11.7352
*END

*D_NET *269 0.000485063

*CONN
*I *625:B I *C 253.79 5.22 *L 0.000468 *D AOI21D0BWP
*I *624:ZN O *C 255.47 5.36 *L 0 *D OAI21D0BWP

*CAP
1 *624:ZN 6.65784e-05
2 *625:B 0.000116885
3 *269:2 0.000183463
4 *269:2 *625:A1 0.000118136

*RES
1 *625:B *269:2 13.2303
2 *269:2 *624:ZN 6.29771
*END

*D_NET *270 0.00223517

*CONN
*I *625:A2 I *C 254.49 5.22 *L 0.000418 *D AOI21D0BWP
*I *624:A2 I *C 255.89 5.22 *L 0.000446 *D OAI21D0BWP
*I *623:B I *C 261.91 2.84 *L 0.000441 *D AOI211D0BWP
*I *622:ZN O *C 260.65 2.84 *L 0 *D NR2D0BWP

*CAP
1 *623:B 0.000104606
2 *622:ZN 1.19805e-05
3 *624:A2 5.87702e-05
4 *625:A2 6.98566e-05
5 *270:4 0.000676572
6 *270:5 0.000634313
7 *270:6 8.54135e-05
8 *625:A2 *625:A1 0.0001055
9 *270:5 *49:51 0.000284791
10 *270:5 *266:4 0.000101328
11 *623:B *623:A1 0.000102043

*RES
1 *625:A2 *270:6 6.28877
2 *270:6 *270:5 0.30601
3 *270:5 *270:4 22.5533
4 *624:A2 *270:5 12.8109
5 *270:4 *622:ZN 3.8662
6 *623:B *270:4 14.7924
*END

*D_NET *271 0.000952125

*CONN
*I *633:A2 I *C 111.13 5.36 *L 0.00046 *D NR2D0BWP
*I *631:A1 I *C 111.69 2.7 *L 0.000443 *D NR2D0BWP
*I *630:ZN O *C 110.85 3.54 *L 0 *D INVD0BWP

*CAP
1 *631:A1 0.000173271
2 *633:A2 0.000209153
3 *630:ZN 8.34465e-06
4 *271:3 0.00021404
5 *271:4 0.000258267
6 *271:3 *314:8 8.90493e-05

*RES
1 *271:4 *630:ZN 3.89409
2 *633:A2 *271:4 10.6105
3 *631:A1 *271:3 8.24749
4 *271:3 *271:4 2.92659
*END

*D_NET *272 0.000942588

*CONN
*I *633:A1 I *C 111.41 5.22 *L 0.000443 *D NR2D0BWP
*I *627:A1 I *C 108.89 3.82 *L 0.000443 *D NR2D0BWP
*I *626:ZN O *C 109.87 5.5 *L 0 *D INVD0BWP

*CAP
1 *633:A1 9.07183e-05
2 *626:ZN 3.618e-05
3 *272:3 0.00015682
4 *272:4 0.000177026
5 *272:5 0.000106335
6 *272:6 3.15905e-05
7 *627:A1 *314:8 0.00010395
8 *627:A1 *407:I 0.000105858
9 *272:5 *626:I 0.00013411

*RES
1 *627:A1 *272:6 5.95129
2 *272:6 *272:5 2.3948
3 *272:5 *272:4 4.08065
4 *272:4 *626:ZN 4.20976
5 *272:3 *272:4 1.29902
6 *633:A1 *272:3 5.20253
*END

*D_NET *273 0.0011344

*CONN
*I *637:A2 I *C 120.79 2.7 *L 0.000462 *D ND3D0BWP
*I *636:ZN O *C 116.73 2.98 *L 0 *D AOI22D0BWP

*CAP
1 *636:ZN 0.000310361
2 *637:A2 0.000310361
3 *637:A2 *131:45 0.000161171
4 *637:A2 *644:B1 0.000143647
5 *637:A2 *172:11 0.000208855

*RES
1 *637:A2 *636:ZN 32.3267
*END

*D_NET *274 0.000524282

*CONN
*I *637:A1 I *C 121.07 2.84 *L 0.000444 *D ND3D0BWP
*I *635:ZN O *C 122.33 3.54 *L 0 *D CKND2D0BWP

*CAP
1 *635:ZN 0.000110745
2 *637:A1 8.16584e-05
3 *274:2 0.000134408
4 *274:3 0.000105321
5 *637:A1 *275:2 9.21488e-05

*RES
1 *637:A1 *274:3 9.77385
2 *274:2 *635:ZN 5.7615
3 *274:3 *274:2 4.04167
*END

*D_NET *275 0.000699878

*CONN
*I *638:B1 I *C 120.79 5.5 *L 0.000465 *D AOI32D0BWP
*I *637:ZN O *C 120.79 2.28 *L 0 *D ND3D0BWP

*CAP
1 *637:ZN 9.69171e-05
2 *638:B1 0.000206947
3 *275:2 0.000303864
4 *275:2 *637:A1 9.21488e-05

*RES
1 *638:B1 *275:2 11.0457
2 *275:2 *637:ZN 9.90713
*END

*D_NET *276 0.00178212

*CONN
*I *639:B I *C 112.11 5.22 *L 0.000676 *D AOI31D1BWP
*I *638:ZN O *C 120.09 4.8 *L 0 *D AOI32D0BWP

*CAP
1 *638:ZN 0.000122726
2 *639:B 0.000296533
3 *276:2 0.000419259
4 *639:B *253:9 0.000523448
5 *639:B *250:29 0.000420153

*RES
1 *639:B *276:2 31.9047
2 *276:2 *638:ZN 5.87106
*END

*D_NET *277 0.00111222

*CONN
*I *639:A3 I *C 112.81 5.22 *L 0.000625 *D AOI31D1BWP
*I *634:ZN O *C 116.87 3.54 *L 0 *D CKND2D0BWP

*CAP
1 *634:ZN 2.90275e-05
2 *639:A3 0.000281572
3 *277:2 0.0003106
4 *639:A3 *251:6 0.000197649
5 *639:A3 *314:8 0.000293374

*RES
1 *639:A3 *277:2 19.2357
2 *277:2 *634:ZN 5.61857
*END

*D_NET *278 0.000691533

*CONN
*I *639:A2 I *C 112.67 5.22 *L 0.000571 *D AOI31D1BWP
*I *632:ZN O *C 112.95 2.98 *L 0 *D AOI22D0BWP

*CAP
1 *632:ZN 2.59876e-05
2 *639:A2 0.000319779
3 *278:2 0.000345767

*RES
1 *639:A2 *278:2 14.7061
2 *278:2 *632:ZN 4.14598
*END

*D_NET *279 0.00101566

*CONN
*I *639:A1 I *C 112.39 5.36 *L 0.000555 *D AOI31D1BWP
*I *628:ZN O *C 109.59 2.98 *L 0 *D AOI21D0BWP

*CAP
1 *639:A1 7.4923e-05
2 *628:ZN 0.00032407
3 *279:2 0.000398993
4 *279:2 *260:6 0.000119627
5 *279:2 *631:A2 9.80496e-05

*RES
1 *279:2 *628:ZN 18.4854
2 *639:A1 *279:2 5.05638
*END

*D_NET *280 0.00361216

*CONN
*I *643:A1 I *C 122.47 2.7 *L 0.000423 *D CKND2D0BWP
*I *640:A1 I *C 108.05 2.84 *L 0.00042 *D AOI21D0BWP
*I *635:A1 I *C 122.47 3.82 *L 0.000423 *D CKND2D0BWP
*I *628:A1 I *C 109.45 2.84 *L 0.00042 *D AOI21D0BWP
*I *627:ZN O *C 109.03 3.68 *L 0 *D NR2D0BWP

*CAP
1 *635:A1 0.000116229
2 *643:A1 5.04851e-05
3 *628:A1 9.89437e-06
4 *627:ZN 7.33137e-06
5 *640:A1 0.000216603
6 *280:5 0.000363052
7 *280:6 0.000435114
8 *280:7 0.000550866
9 *280:8 0.000533164
10 *280:9 0.000435114
11 *640:A1 *314:8 0.00016582
12 *280:7 *632:A2 0.000153542
13 *280:6 *105:3 0.000401616
14 *280:6 *77:6 0.00017333

*RES
1 *640:A1 *280:9 11.7738
2 *280:9 *627:ZN 3.89409
3 *628:A1 *280:8 3.82638
4 *280:8 *280:9 6.99425
5 *280:7 *280:8 12.6122
6 *280:6 *280:7 13.2431
7 *280:5 *280:6 7.55024
8 *643:A1 *280:5 8.11434
9 *635:A1 *280:5 9.59408
*END

*D_NET *281 0.00178862

*CONN
*I *644:B1 I *C 118.41 2.84 *L 0.000454 *D AOI22D0BWP
*I *641:B1 I *C 114.91 2.84 *L 0.000454 *D AOI22D0BWP
*I *636:B1 I *C 116.87 2.84 *L 0.000454 *D AOI22D0BWP
*I *632:B1 I *C 113.09 2.84 *L 0.000454 *D AOI22D0BWP
*I *631:ZN O *C 111.83 2.84 *L 0 *D NR2D0BWP

*CAP
1 *644:B1 7.87377e-05
2 *636:B1 2.17557e-05
3 *641:B1 3.34382e-05
4 *631:ZN 4.02331e-05
5 *632:B1 0.000130177
6 *281:5 0.000236034
7 *281:6 0.000235319
8 *281:7 0.00023675
9 *281:7 *131:47 0.000271678
10 *281:7 *282:7 0.000121474
11 *644:B1 *172:11 0.000239372
12 *644:B1 *637:A2 0.000143647

*RES
1 *632:B1 *281:7 13.7825
2 *281:7 *631:ZN 6.73103
3 *281:6 *281:7 2.57218
4 *641:B1 *281:6 4.33016
5 *281:5 *281:6 3.41082
6 *636:B1 *281:5 4.17221
7 *644:B1 *281:5 16.097
*END

*D_NET *282 0.0018698

*CONN
*I *644:A1 I *C 118.13 2.84 *L 0.000433 *D AOI22D0BWP
*I *641:A1 I *C 114.63 2.84 *L 0.000433 *D AOI22D0BWP
*I *636:A1 I *C 116.59 2.84 *L 0.000433 *D AOI22D0BWP
*I *632:A1 I *C 112.81 2.84 *L 0.000433 *D AOI22D0BWP
*I *629:ZN O *C 110.85 2.84 *L 0 *D NR2D0BWP

*CAP
1 *644:A1 0.000113904
2 *636:A1 3.54648e-05
3 *641:A1 3.45111e-05
4 *629:ZN 0.000122905
5 *632:A1 5.54323e-06
6 *282:5 0.000241518
7 *282:6 0.000246584
8 *282:7 0.000248373
9 *282:7 *281:7 0.000121474
10 *282:7 *172:12 0.000205398
11 *282:5 *260:6 0.000494123

*RES
1 *632:A1 *282:7 3.84498
2 *282:7 *629:ZN 16.9276
3 *641:A1 *282:6 4.45628
4 *282:6 *282:7 5.04518
5 *636:A1 *282:5 4.421
6 *282:5 *282:6 4.56166
7 *644:A1 *282:5 7.92015
*END

*D_NET *283 0.000350952

*CONN
*I *645:A2 I *C 119.53 2.7 *L 0.000462 *D ND3D0BWP
*I *644:ZN O *C 118.27 2.98 *L 0 *D AOI22D0BWP

*CAP
1 *644:ZN 0.000175476
2 *645:A2 0.000175476

*RES
1 *645:A2 *644:ZN 10.7912
*END

*D_NET *284 0.000672221

*CONN
*I *645:A1 I *C 119.81 2.84 *L 0.000444 *D ND3D0BWP
*I *643:ZN O *C 122.33 2.98 *L 0 *D CKND2D0BWP

*CAP
1 *643:ZN 3.1352e-05
2 *645:A1 0.000169337
3 *284:2 0.000200689
4 *645:A1 *85:9 0.00015533
5 *284:2 *172:11 0.000115514

*RES
1 *645:A1 *284:2 23.6613
2 *284:2 *643:ZN 5.09942
*END

*D_NET *285 0.000701785

*CONN
*I *646:B1 I *C 118.83 5.5 *L 0.000465 *D AOI32D0BWP
*I *645:ZN O *C 119.53 2.28 *L 0 *D ND3D0BWP

*CAP
1 *645:ZN 2.2769e-05
2 *646:B1 5.14388e-05
3 *285:2 0.000248313
4 *285:3 0.000276983
5 *646:B1 *195:3 0.000102282

*RES
1 *646:B1 *285:3 5.98133
2 *285:2 *645:ZN 4.01556
3 *285:3 *285:2 11.1837
*END

*D_NET *286 0.00309598

*CONN
*I *646:A1 I *C 118.55 5.22 *L 0.000447 *D AOI32D0BWP
*I *642:A1 I *C 117.01 5.22 *L 0.000423 *D CKND2D0BWP
*I *638:A1 I *C 120.51 5.22 *L 0.000447 *D AOI32D0BWP
*I *634:A1 I *C 117.01 3.82 *L 0.000423 *D CKND2D0BWP
*I *633:ZN O *C 111.55 5.36 *L 0 *D NR2D0BWP

*CAP
1 *638:A1 0.000154436
2 *646:A1 9.68575e-05
3 *642:A1 1.35303e-05
4 *634:A1 3.51667e-05
5 *633:ZN 0.000341654
6 *286:5 0.000251889
7 *286:6 0.000110388
8 *286:7 0.00045681
9 *286:8 0.000247777
10 *286:7 *253:9 8.34465e-05
11 *286:7 *158:4 0.000118732
12 *286:7 *161:2 0.000100911
13 *286:7 *288:2 0.000145555
14 *646:A1 *195:3 0.00017643
15 *646:A1 *287:2 8.57115e-05
16 *286:5 *260:6 0.000310004
17 *286:5 *407:I 0.000366688

*RES
1 *286:8 *286:7 5.65183
2 *286:7 *633:ZN 31.0017
3 *286:6 *286:7 0.0215769
4 *634:A1 *286:8 8.29864
5 *642:A1 *286:6 3.87228
6 *646:A1 *286:6 7.97141
7 *286:5 *286:8 15.631
8 *638:A1 *286:5 10.4408
*END

*D_NET *287 0.000790715

*CONN
*I *647:B I *C 115.75 3.82 *L 0.00123 *D AOI31D2BWP
*I *646:ZN O *C 118.13 4.8 *L 0 *D AOI32D0BWP

*CAP
1 *646:ZN 6.08563e-05
2 *647:B 0.000143468
3 *287:2 7.82609e-05
4 *287:3 0.000160873
5 *287:2 *646:A1 8.57115e-05
6 *287:2 *190:2 0.000158072
7 *287:2 *288:2 0.000103474

*RES
1 *647:B *287:3 10.1062
2 *287:2 *646:ZN 8.5808
3 *287:3 *287:2 3.96287
*END

*D_NET *288 0.000699639

*CONN
*I *647:A3 I *C 114.49 3.82 *L 0.00132 *D AOI31D2BWP
*I *642:ZN O *C 116.87 5.5 *L 0 *D CKND2D0BWP

*CAP
1 *647:A3 0.000147223
2 *642:ZN 7.80821e-05
3 *288:2 0.000225306
4 *288:2 *286:7 0.000145555
5 *288:2 *287:2 0.000103474

*RES
1 *288:2 *642:ZN 8.25024
2 *647:A3 *288:2 13.6007
*END

*D_NET *289 0.000314951

*CONN
*I *647:A2 I *C 114.63 3.68 *L 0.0012 *D AOI31D2BWP
*I *641:ZN O *C 114.77 2.98 *L 0 *D AOI22D0BWP

*CAP
1 *641:ZN 0.00011003
2 *647:A2 0.00011003
3 *647:A2 *647:A1 9.48906e-05

*RES
1 *647:A2 *641:ZN 17.6742
*END

*D_NET *290 0.00163436

*CONN
*I *647:A1 I *C 114.91 3.82 *L 0.000981 *D AOI31D2BWP
*I *640:ZN O *C 108.19 2.98 *L 0 *D AOI21D0BWP

*CAP
1 *640:ZN 0.00022912
2 *647:A1 7.88569e-05
3 *290:2 0.000307977
4 *647:A1 *647:A2 9.48906e-05
5 *290:2 *339:5 0.00020647
6 *290:2 *130:3 0.000535965
7 *290:2 *161:4 0.000181079

*RES
1 *647:A1 *290:2 9.8021
2 *290:2 *640:ZN 30.3236
*END

*D_NET *291 0.000700593

*CONN
*I *655:A2 I *C 157.89 5.36 *L 0.00046 *D NR2D0BWP
*I *653:A1 I *C 158.17 3.82 *L 0.000443 *D NR2D0BWP
*I *652:ZN O *C 158.59 3.54 *L 0 *D INVD0BWP

*CAP
1 *653:A1 3.41535e-05
2 *652:ZN 3.08752e-05
3 *655:A2 0.000199735
4 *291:3 6.50287e-05
5 *291:4 0.000268042
6 *291:3 *197:2 0.000102758

*RES
1 *655:A2 *291:4 10.8619
2 *291:3 *652:ZN 5.14698
3 *291:4 *291:3 4.22513
4 *653:A1 *291:4 8.24559
*END

*D_NET *292 0.00091368

*CONN
*I *655:A1 I *C 158.17 5.22 *L 0.000443 *D NR2D0BWP
*I *649:A1 I *C 155.79 5.22 *L 0.000443 *D NR2D0BWP
*I *648:ZN O *C 157.05 5.5 *L 0 *D INVD0BWP

*CAP
1 *655:A1 0.000180066
2 *648:ZN 1.52588e-05
3 *649:A1 0.000159979
4 *292:3 0.000355303
5 *649:A1 *649:A2 8.9705e-05
6 *655:A1 *83:11 0.000113368

*RES
1 *649:A1 *292:3 15.6473
2 *292:3 *648:ZN 3.92008
3 *655:A1 *292:3 14.6798
*END

*D_NET *293 0.000697613

*CONN
*I *659:A2 I *C 156.63 5.22 *L 0.000462 *D ND3D0BWP
*I *658:ZN O *C 157.33 2.98 *L 0 *D AOI22D0BWP

*CAP
1 *658:ZN 1.78814e-05
2 *659:A2 0.000269413
3 *293:2 0.000287294
4 *659:A2 *194:3 0.000123024

*RES
1 *659:A2 *293:2 11.2674
2 *293:2 *658:ZN 4.022
*END

*D_NET *294 0.00228524

*CONN
*I *659:A1 I *C 156.35 5.36 *L 0.000444 *D ND3D0BWP
*I *657:ZN O *C 148.93 2.98 *L 0 *D CKND2D0BWP

*CAP
1 *659:A1 0.000210702
2 *657:ZN 8.92282e-05
3 *294:2 0.000500381
4 *294:3 0.000378907
5 *294:2 *663:A1 0.000179768
6 *294:2 *301:7 0.000145316
7 *294:2 *304:2 0.000301838
8 *294:2 *297:3 0.000291705
9 *659:A1 *295:2 0.000187397

*RES
1 *294:3 *657:ZN 12.4956
2 *294:2 *294:3 14.9503
3 *659:A1 *294:2 10.7629
*END

*D_NET *295 0.00145006

*CONN
*I *660:B1 I *C 160.83 2.98 *L 0.000465 *D AOI32D0BWP
*I *659:ZN O *C 156.63 4.8 *L 0 *D ND3D0BWP

*CAP
1 *660:B1 0.000331521
2 *659:ZN 0.000150621
3 *295:2 0.000482142
4 *295:2 *659:A1 0.000187397
5 *660:B1 *354:6 0.000137925
6 *660:B1 *297:3 0.000160456

*RES
1 *295:2 *659:ZN 11.827
2 *660:B1 *295:2 17.9652
*END

*D_NET *296 0.00178754

*CONN
*I *661:B I *C 152.01 2.7 *L 0.00123 *D AOI31D2BWP
*I *660:ZN O *C 161.53 2.28 *L 0 *D AOI32D0BWP

*CAP
1 *660:ZN 4.91142e-05
2 *661:B 0.000114083
3 *296:2 0.00010401
4 *296:3 0.000315189
5 *296:4 0.000374377
6 *296:4 *172:5 8.10623e-05
7 *296:4 *77:5 0.000438094
8 *296:2 *194:3 0.00017035
9 *296:2 *70:3 0.000141263

*RES
1 *661:B *296:4 12.7009
2 *296:4 *296:3 11.547
3 *296:2 *660:ZN 7.23422
4 *296:3 *296:2 8.25894
*END

*D_NET *297 0.00167751

*CONN
*I *661:A3 I *C 153.27 2.7 *L 0.00132 *D AOI31D2BWP
*I *656:ZN O *C 159.57 3.54 *L 0 *D CKND2D0BWP

*CAP
1 *656:ZN 4.09484e-05
2 *661:A3 0.000118971
3 *297:2 0.000301719
4 *297:3 0.000379741
5 *297:3 *197:2 0.000383973
6 *297:3 *294:2 0.000291705
7 *297:3 *660:B1 0.000160456

*RES
1 *661:A3 *297:3 9.54473
2 *297:3 *297:2 17.203
3 *297:2 *656:ZN 5.70905
*END

*D_NET *298 0.000609577

*CONN
*I *661:A2 I *C 153.13 2.84 *L 0.0012 *D AOI31D2BWP
*I *654:ZN O *C 153.97 2.98 *L 0 *D AOI22D0BWP

*CAP
1 *654:ZN 1.8239e-05
2 *661:A2 0.00013876
3 *298:2 0.000156999
4 *661:A2 *663:B1 0.000172019
5 *661:A2 *172:5 0.00012356

*RES
1 *661:A2 *298:2 23.8484
2 *298:2 *654:ZN 4.2901
*END

*D_NET *299 0.000845253

*CONN
*I *661:A1 I *C 152.85 2.7 *L 0.000981 *D AOI31D2BWP
*I *650:ZN O *C 149.77 2.98 *L 0 *D AOI21D0BWP

*CAP
1 *650:ZN 0.000220954
2 *661:A1 0.000220954
3 *661:A1 *663:B1 0.000148833
4 *661:A1 *181:2 0.000129879
5 *661:A1 *172:5 0.000124633

*RES
1 *661:A1 *650:ZN 30.4456
*END

*D_NET *300 0.0026899

*CONN
*I *665:A1 I *C 147.53 2.7 *L 0.000423 *D CKND2D0BWP
*I *662:A1 I *C 149.07 5.36 *L 0.00042 *D AOI21D0BWP
*I *657:A1 I *C 148.79 2.7 *L 0.000423 *D CKND2D0BWP
*I *650:A1 I *C 149.63 2.84 *L 0.00042 *D AOI21D0BWP
*I *649:ZN O *C 155.65 5.36 *L 0 *D NR2D0BWP

*CAP
1 *649:ZN 1.67489e-05
2 *650:A1 5.0664e-05
3 *662:A1 0.000150621
4 *657:A1 1.09673e-05
5 *665:A1 6.61612e-05
6 *300:5 0.000255406
7 *300:6 0.000526488
8 *300:7 0.000275195
9 *300:8 0.000164449
10 *665:A1 *172:7 0.000136256
11 *300:8 *650:A2 8.39829e-05
12 *300:7 *662:B 0.000165105
13 *300:6 *174:8 0.000390887
14 *300:6 *307:5 0.000396967

*RES
1 *665:A1 *300:8 6.67906
2 *657:A1 *300:8 3.8203
3 *300:8 *300:7 13.4852
4 *662:A1 *300:6 13.4784
5 *650:A1 *300:7 8.20553
6 *300:7 *300:6 7.11393
7 *300:6 *300:5 19.9361
8 *300:5 *649:ZN 4.79639
*END

*D_NET *301 0.00234771

*CONN
*I *666:B1 I *C 155.37 2.84 *L 0.000454 *D AOI22D0BWP
*I *663:B1 I *C 151.45 2.84 *L 0.000454 *D AOI22D0BWP
*I *658:B1 I *C 157.47 2.84 *L 0.000454 *D AOI22D0BWP
*I *654:B1 I *C 154.11 2.84 *L 0.000454 *D AOI22D0BWP
*I *653:ZN O *C 158.03 3.68 *L 0 *D NR2D0BWP

*CAP
1 *653:ZN 2.04444e-05
2 *658:B1 0.000140607
3 *666:B1 3.57628e-05
4 *654:B1 4.16636e-05
5 *663:B1 8.93474e-05
6 *301:5 0.000310421
7 *301:6 0.000256121
8 *301:7 0.000202
9 *663:B1 *76:6 0.000293195
10 *663:B1 *661:A1 0.000148833
11 *663:B1 *661:A2 0.000172019
12 *301:7 *302:8 0.00013423
13 *301:7 *294:2 0.000145316
14 *301:6 *649:A2 0.000222206
15 *301:6 *197:2 0.000135541

*RES
1 *663:B1 *301:7 23.7329
2 *301:7 *301:6 7.83253
3 *654:B1 *301:7 8.42786
4 *301:6 *301:5 13.262
5 *666:B1 *301:6 4.45652
6 *658:B1 *301:5 13.3786
7 *301:5 *653:ZN 4.62472
*END

*D_NET *302 0.00241065

*CONN
*I *666:A1 I *C 155.09 2.84 *L 0.000433 *D AOI22D0BWP
*I *663:A1 I *C 151.17 2.84 *L 0.000433 *D AOI22D0BWP
*I *658:A1 I *C 157.19 2.84 *L 0.000433 *D AOI22D0BWP
*I *654:A1 I *C 153.83 2.84 *L 0.000433 *D AOI22D0BWP
*I *651:ZN O *C 159.29 2.84 *L 0 *D NR2D0BWP

*CAP
1 *658:A1 8.58307e-06
2 *651:ZN 6.64592e-05
3 *666:A1 7.21216e-06
4 *654:A1 6.96778e-05
5 *663:A1 0.000237107
6 *302:5 0.000136912
7 *302:6 0.000272334
8 *302:7 0.000302017
9 *302:8 0.000408292
10 *663:A1 *294:2 0.000179768
11 *302:8 *301:7 0.00013423
12 *302:7 *76:6 0.00013876
13 *302:7 *658:A2 9.29832e-05
14 *302:5 *194:3 0.000195503
15 *302:5 *70:3 0.000160813

*RES
1 *663:A1 *302:8 16.636
2 *654:A1 *302:8 12.2467
3 *302:8 *302:7 3.57592
4 *666:A1 *302:7 3.85129
5 *302:7 *302:6 21.0381
6 *302:5 *651:ZN 7.29942
7 *302:6 *302:5 8.50391
8 *658:A1 *302:6 3.90315
*END

*D_NET *303 0.000630975

*CONN
*I *667:A2 I *C 154.95 5.22 *L 0.000462 *D ND3D0BWP
*I *666:ZN O *C 155.23 2.98 *L 0 *D AOI22D0BWP

*CAP
1 *666:ZN 2.41399e-05
2 *667:A2 0.000239611
3 *303:2 7.58767e-05
4 *303:3 0.000291348

*RES
1 *667:A2 *303:3 11.7878
2 *303:3 *303:2 4.72081
3 *303:2 *666:ZN 4.14586
*END

*D_NET *304 0.00176942

*CONN
*I *667:A1 I *C 154.67 5.36 *L 0.000444 *D ND3D0BWP
*I *665:ZN O *C 147.67 2.98 *L 0 *D CKND2D0BWP

*CAP
1 *667:A1 8.30889e-05
2 *665:ZN 0.000400543
3 *304:2 0.000483632
4 *304:2 *197:2 0.000360966
5 *304:2 *294:2 0.000301838
6 *667:A1 *669:A3 0.000139356

*RES
1 *304:2 *665:ZN 24.3782
2 *667:A1 *304:2 7.10571
*END

*D_NET *305 0.0014118

*CONN
*I *668:B1 I *C 159.99 5.5 *L 0.000465 *D AOI32D0BWP
*I *667:ZN O *C 154.95 4.8 *L 0 *D ND3D0BWP

*CAP
1 *668:B1 0.000113666
2 *667:ZN 0.00024122
3 *305:2 0.000354886
4 *305:2 *42:14 0.000436306
5 *305:2 *96:2 0.000147343
6 *668:B1 *668:A3 0.000118375

*RES
1 *305:2 *667:ZN 17.8494
2 *668:B1 *305:2 11.3466
*END

*D_NET *306 0.00153995

*CONN
*I *668:A1 I *C 159.71 5.22 *L 0.000447 *D AOI32D0BWP
*I *664:A1 I *C 162.65 3.82 *L 0.000423 *D CKND2D0BWP
*I *660:A1 I *C 161.11 2.7 *L 0.000447 *D AOI32D0BWP
*I *656:A1 I *C 159.71 3.82 *L 0.000423 *D CKND2D0BWP
*I *655:ZN O *C 158.31 5.36 *L 0 *D NR2D0BWP

*CAP
1 *664:A1 2.58088e-05
2 *660:A1 0.000169218
3 *668:A1 1.06692e-05
4 *656:A1 9.29832e-06
5 *655:ZN 0.000113726
6 *306:5 0.000212371
7 *306:6 0.00026536
8 *306:7 0.000167608
9 *306:6 *307:2 8.13007e-05
10 *306:5 *656:A2 0.000217795
11 *664:A1 *308:2 0.00026679

*RES
1 *306:7 *306:6 9.73833
2 *306:6 *655:ZN 7.22575
3 *656:A1 *306:7 3.82018
4 *668:A1 *306:6 3.91233
5 *660:A1 *306:5 14.03
6 *306:5 *306:7 3.41344
7 *664:A1 *306:5 7.65717
*END

*D_NET *307 0.00261688

*CONN
*I *669:B I *C 150.47 5.22 *L 0.00123 *D AOI31D2BWP
*I *668:ZN O *C 159.29 4.8 *L 0 *D AOI32D0BWP

*CAP
1 *668:ZN 3.27229e-05
2 *669:B 0.000114918
3 *307:2 0.000127196
4 *307:3 0.000148237
5 *307:4 0.000449955
6 *307:5 0.000388801
7 *307:5 *300:6 0.000396967
8 *307:5 *174:8 0.000298858
9 *307:5 *194:4 0.000435591
10 *307:4 *355:6 0.000142336
11 *307:2 *306:6 8.13007e-05

*RES
1 *307:5 *307:4 15.6704
2 *307:3 *307:5 2.27702
3 *669:B *307:3 7.31575
4 *307:4 *307:2 10.3543
5 *307:2 *668:ZN 5.58364
*END

*D_NET *308 0.00245398

*CONN
*I *669:A3 I *C 151.73 5.22 *L 0.00132 *D AOI31D2BWP
*I *664:ZN O *C 162.51 3.54 *L 0 *D CKND2D0BWP

*CAP
1 *664:ZN 4.89354e-05
2 *669:A3 8.67248e-05
3 *308:2 0.000348747
4 *308:3 0.000386536
5 *669:A3 *174:8 0.000157654
6 *669:A3 *667:A1 0.000139356
7 *308:3 *355:6 0.000493884
8 *308:3 *649:A2 0.000301003
9 *308:3 *194:4 0.000224352
10 *308:2 *664:A1 0.00026679

*RES
1 *669:A3 *308:3 8.25477
2 *308:3 *308:2 19.9897
3 *308:2 *664:ZN 9.85408
*END

*D_NET *309 0.000614881

*CONN
*I *669:A2 I *C 151.59 5.36 *L 0.0012 *D AOI31D2BWP
*I *663:ZN O *C 151.31 2.98 *L 0 *D AOI22D0BWP

*CAP
1 *669:A2 0.000264227
2 *663:ZN 4.32134e-05
3 *309:2 0.000307441

*RES
1 *309:2 *663:ZN 4.58598
2 *669:A2 *309:2 15.5625
*END

*D_NET *310 0.000833094

*CONN
*I *669:A1 I *C 151.31 5.22 *L 0.000981 *D AOI31D2BWP
*I *662:ZN O *C 149.21 5.5 *L 0 *D AOI21D0BWP

*CAP
1 *662:ZN 0.000263095
2 *669:A1 0.000263095
3 *669:A1 *250:20 0.000109017
4 *669:A1 *182:4 0.000113606
5 *669:A1 *42:14 8.4281e-05

*RES
1 *669:A1 *662:ZN 19.1848
*END

*D_NET *311 0.0138569

*CONN
*I *670:A3 I *C 66.61 2.84 *L 0.000602 *D NR3D0BWP
*I *552:A2 I *C 139.69 2.84 *L 0.00046 *D NR2D0BWP
*I *549:A2 I *C 138.15 5.36 *L 0.00046 *D NR2D0BWP
*I *544:A2 I *C 67.73 3.68 *L 0.00046 *D NR2D0BWP
*I *543:ZN O *C 86.91 4.24 *L 0 *D CKND2D1BWP

*CAP
1 *552:A2 8.07047e-05
2 *549:A2 0.000112057
3 *543:ZN 7.89165e-05
4 *544:A2 4.97103e-05
5 *670:A3 7.15852e-05
6 *311:5 0.000255704
7 *311:6 0.000189781
8 *311:7 0.000304103
9 *311:8 0.000177503
10 *311:9 0.000547647
11 *311:10 9.93013e-05
12 *311:11 0.000106752
13 *311:12 0.000300765
14 *311:13 0.000305474
15 *311:14 0.000241816
16 *311:15 0.000249565
17 *311:16 0.000166774
18 *311:17 5.85914e-05
19 *311:18 0.000555396
20 *311:18 *40:149 0.00015375
21 *311:16 *448:CP 1.91927e-05
22 *311:15 *448:CP 3.27826e-06
23 *311:9 *40:150 1.38283e-05
24 *311:9 *40:148 0.00015375
25 *311:18 *250:29 0.000567883
26 *311:18 *250:25 1.75834e-05
27 *311:17 *250:25 0.000204563
28 *311:11 *250:25 0.000472456
29 *311:10 *250:30 0.000460237
30 *311:9 *250:25 0.000598788
31 *311:9 *250:30 1.44839e-05
32 *311:9 *250:24 0.000585705
33 *311:18 *84:13 0.000663221
34 *311:9 *84:15 0.000663221
35 *311:14 *555:A2 0.000874996
36 *311:14 *156:4 0.000428319
37 *311:14 *104:6 0.000495672
38 *311:13 *160:7 0.000701606
39 *311:12 *160:6 0.000701606
40 *311:10 *249:8 0.00104928
41 *311:9 *337:5 0.000205755
42 *311:6 *74:14 0.000722766
43 *552:A2 *172:9 0.000132799

*RES
1 *311:18 *311:17 0.609756
2 *670:A3 *311:16 5.0565
3 *311:16 *311:15 5.56231
4 *544:A2 *311:15 8.11946
5 *311:15 *311:14 6.79076
6 *311:14 *311:13 23.5281
7 *311:13 *311:12 12.8676
8 *311:12 *543:ZN 6.82116
9 *311:11 *311:12 3.19469
10 *311:10 *311:11 26.0226
11 *311:17 *311:10 4.50826
12 *311:9 *311:18 45.526
13 *311:8 *311:9 0.153184
14 *311:7 *311:6 3.91471
15 *311:6 *311:8 14.8668
16 *311:5 *311:7 6.62208
17 *549:A2 *311:7 9.15599
18 *552:A2 *311:5 6.37305
*END

*D_NET *312 0.0106189

*CONN
*I *670:A2 I *C 66.33 2.7 *L 0.000511 *D NR3D0BWP
*I *556:A1 I *C 88.17 3.82 *L 0.000443 *D NR2D0BWP
*I *554:A1 I *C 78.51 3.82 *L 0.000443 *D NR2D0BWP
*I *522:A1 I *C 89.15 5.22 *L 0.000519 *D NR2XD0BWP
*I *520:ZN O *C 57.09 4.8 *L 0 *D CKND2D1BWP
*I *505:B1 I *C 23.07 2.84 *L 0.00045 *D IND2D0BWP

*CAP
1 *522:A1 4.01735e-05
2 *556:A1 5.16772e-05
3 *554:A1 5.29885e-05
4 *670:A2 2.47359e-05
5 *520:ZN 0.000288188
6 *505:B1 0.000128567
7 *312:6 8.07643e-05
8 *312:7 0.000349641
9 *312:8 0.000114799
10 *312:9 0.000618219
11 *312:10 0.000548124
12 *312:11 0.000826836
13 *312:12 0.000664234
14 *312:13 0.00014931
15 *312:14 0.000208616
16 *312:15 0.000153124
17 *312:16 0.000415444
18 *312:17 0.000827134
19 *312:18 0.000160933
20 *312:19 0.000287056
21 *312:20 0.000982225
22 *312:17 *89:5 0.000535727
23 *312:17 *141:3 0.00070715
24 *312:14 *81:4 0.000327706
25 *312:14 *161:11 0.000287771
26 *312:11 *80:3 0.000153065
27 *312:11 *406:I 0.000169635
28 *312:11 *128:2 0.00012517
29 *312:7 *249:15 0.000556588
30 *312:7 *259:8 0.000651598
31 *312:6 *560:A2 0.000131726

*RES
1 *312:20 *312:19 9.12964
2 *505:B1 *312:18 6.18088
3 *312:17 *312:20 40.5321
4 *312:18 *312:17 2.18165
5 *312:19 *312:16 3.41833
6 *312:16 *520:ZN 9.51731
7 *312:15 *312:16 2.95615
8 *312:14 *312:15 11.5221
9 *670:A2 *312:13 4.44388
10 *312:13 *312:14 7.65169
11 *312:12 *312:13 1.12057
12 *312:11 *312:12 17.4215
13 *312:10 *312:11 5.60629
14 *554:A1 *312:10 6.83546
15 *312:9 *312:10 12.642
16 *556:A1 *312:8 8.59416
17 *312:7 *312:9 15.1798
18 *312:8 *312:7 4.00615
19 *312:6 *312:8 5.23472
20 *522:A1 *312:6 5.19049
*END

*D_NET *313 0.00692332

*CONN
*I *671:A3 I *C 91.11 5.36 *L 0.000602 *D NR3D0BWP
*I *546:A1 I *C 68.85 3.82 *L 0.000443 *D NR2D0BWP
*I *544:A1 I *C 67.45 3.82 *L 0.000443 *D NR2D0BWP
*I *540:A1 I *C 100.49 5.22 *L 0.000443 *D NR2D0BWP
*I *538:ZN O *C 72.21 5.5 *L 0 *D CKND2D0BWP

*CAP
1 *540:A1 0.000124753
2 *671:A3 0.00018847
3 *538:ZN 2.8789e-05
4 *546:A1 1.26362e-05
5 *544:A1 0.00016439
6 *313:5 0.000166416
7 *313:6 5.97239e-05
8 *313:7 0.000224233
9 *313:8 6.84261e-05
10 *313:9 0.000248313
11 *313:10 0.000229776
12 *313:11 7.7188e-05
13 *313:12 0.000307083
14 *313:13 0.000403523
15 *313:13 *260:13 0.000201106
16 *313:9 *607:A1 0.000373363
17 *313:9 *502:D 0.0001266
18 *313:8 *314:13 0.000177145
19 *313:7 *268:35 0.000740886
20 *313:6 *268:34 0.000740886
21 *313:7 *253:18 0.00112981
22 *313:6 *253:9 0.00112981

*RES
1 *544:A1 *313:13 7.34258
2 *313:13 *313:12 18.0273
3 *546:A1 *313:13 3.85928
4 *313:12 *313:11 2.41935
5 *313:10 *313:12 2.32947
6 *313:11 *538:ZN 2.22623
7 *313:9 *313:10 13.595
8 *313:8 *313:9 4.17268
9 *313:7 *313:8 18.2408
10 *671:A3 *313:7 9.72724
11 *313:6 *313:7 19.5171
12 *313:5 *313:6 3.18182
13 *540:A1 *313:5 8.92675
*END

*D_NET *314 0.0112004

*CONN
*I *672:A3 I *C 96.29 5.36 *L 0.000602 *D NR3D0BWP
*I *553:A1 I *C 137.31 3.82 *L 0.000443 *D NR2D0BWP
*I *552:A1 I *C 139.97 2.7 *L 0.000443 *D NR2D0BWP
*I *551:A1 I *C 136.19 3.82 *L 0.000443 *D NR2D0BWP
*I *550:ZN O *C 77.53 4.8 *L 0 *D CKND2D1BWP

*CAP
1 *552:A1 0.000365317
2 *553:A1 8.76188e-06
3 *551:A1 8.22544e-06
4 *672:A3 9.65595e-06
5 *550:ZN 0.000182688
6 *314:5 0.000448704
7 *314:6 0.000171006
8 *314:7 0.000510335
9 *314:8 0.000906169
10 *314:9 0.000432849
11 *314:10 0.00135499
12 *314:11 0.000614583
13 *314:12 0.000233352
14 *314:13 0.000190914
15 *314:14 0.000285685
16 *314:14 *331:6 0.000160098
17 *314:13 *268:36 0.000227571
18 *314:13 *313:8 0.000177145
19 *314:12 *333:6 0.000635028
20 *314:12 *96:5 0.000989795
21 *314:10 *558:A2 8.33273e-05
22 *314:10 *561:A2 0.000133276
23 *314:10 *190:3 0.000262976
24 *314:8 *251:6 0.000909448
25 *314:8 *640:A1 0.00016582
26 *314:8 *627:A2 0.000117183
27 *314:8 *627:A1 0.00010395
28 *314:8 *271:3 8.90493e-05
29 *314:8 *407:I 0.000522673
30 *314:8 *639:A3 0.000293374
31 *314:7 *260:6 0.000424147
32 *314:7 *474:D 9.36389e-05
33 *552:A1 *197:3 8.86917e-05

*RES
1 *314:14 *550:ZN 11.8151
2 *314:13 *314:14 11.0183
3 *314:12 *314:13 12.1856
4 *314:11 *314:12 10.1457
5 *672:A3 *314:11 3.8203
6 *314:10 *314:11 20.6199
7 *314:9 *314:8 0.30601
8 *314:8 *314:10 37.6117
9 *314:7 *314:9 16.0871
10 *551:A1 *314:6 3.8265
11 *314:6 *314:7 4.44388
12 *553:A1 *314:5 3.8327
13 *314:5 *314:6 2.69508
14 *552:A1 *314:5 18.5659
*END

*D_NET *315 0.00598496

*CONN
*I *672:A2 I *C 96.57 5.22 *L 0.000511 *D NR3D0BWP
*I *671:A2 I *C 90.83 5.22 *L 0.000511 *D NR3D0BWP
*I *610:A2 I *C 80.89 3.82 *L 0.000466 *D OAI22D0BWP
*I *556:A2 I *C 87.89 3.68 *L 0.00046 *D NR2D0BWP
*I *555:A2 I *C 74.03 3.68 *L 0.000469 *D AN3D0BWP
*I *545:A2 I *C 86.91 5.36 *L 0.000611 *D CKND2D1BWP
*I *543:A2 I *C 86.77 3.68 *L 0.000611 *D CKND2D1BWP
*I *542:ZN O *C 84.81 3.54 *L 0 *D INVD0BWP

*CAP
1 *672:A2 0.000174642
2 *671:A2 8.31485e-05
3 *556:A2 7.98702e-06
4 *545:A2 0.000165522
5 *543:A2 1.13845e-05
6 *542:ZN 2.29478e-05
7 *610:A2 1.508e-05
8 *555:A2 0.000105739
9 *315:8 0.000491142
10 *315:9 0.000299931
11 *315:10 0.000339329
12 *315:11 0.000207186
13 *315:12 0.000181079
14 *315:13 0.000267386
15 *315:14 0.000257373
16 *555:A2 *311:14 0.000874996
17 *555:A2 *104:5 0.000883818
18 *315:14 *259:8 0.000343323
19 *545:A2 *251:10 0.00017643
20 *315:8 *39:5 0.000133276
21 *672:A2 *260:8 0.000470936
22 *672:A2 *250:25 0.000472307

*RES
1 *555:A2 *315:14 20.6816
2 *315:14 *315:13 8.61871
3 *610:A2 *315:13 3.88467
4 *315:12 *315:11 14.3343
5 *315:13 *315:12 5.26619
6 *315:11 *542:ZN 4.19843
7 *315:10 *315:11 2.66171
8 *543:A2 *315:10 3.8203
9 *545:A2 *315:10 15.085
10 *315:9 *315:10 1.71685
11 *556:A2 *315:9 3.82042
12 *671:A2 *315:8 8.85677
13 *315:8 *315:9 10.5702
14 *672:A2 *315:8 31.0388
*END

*D_NET *316 0.00124979

*CONN
*I *673:A3 I *C 190.51 2.7 *L 0.00101 *D NR3D1BWP
*I *600:B2 I *C 191.91 2.56 *L 0.000475 *D OAI22D0BWP
*I *534:A2 I *C 190.23 3.68 *L 0.000441 *D CKND2D0BWP
*I *510:A3 I *C 192.47 5.22 *L 0.00101 *D NR3D1BWP
*I *509:ZN O *C 191.21 3.54 *L 0 *D INVD0BWP

*CAP
1 *510:A3 3.618e-05
2 *600:B2 0.000137091
3 *509:ZN 0.000132918
4 *673:A3 8.03471e-05
5 *534:A2 1.78218e-05
6 *316:5 0.000121474
7 *316:6 0.000298977
8 *316:7 9.64999e-05
9 *316:8 9.0301e-05
10 *600:B2 *238:6 0.000108123
11 *510:A3 *517:I 0.000130057

*RES
1 *534:A2 *316:8 4.09997
2 *673:A3 *316:7 9.71794
3 *316:8 *509:ZN 4.64988
4 *316:7 *316:8 3.91471
5 *316:6 *509:ZN 8.757
6 *316:5 *316:6 5.19693
7 *600:B2 *316:6 11.4831
8 *510:A3 *316:5 5.10001
*END

*D_NET *317 0.00169325

*CONN
*I *673:A2 I *C 190.79 2.7 *L 0.00107 *D NR3D1BWP
*I *530:A2 I *C 200.31 2.84 *L 0.00046 *D NR2D0BWP
*I *529:ZN O *C 198.07 2.98 *L 0 *D INVD0BWP

*CAP
1 *530:A2 0.000169158
2 *529:ZN 1.00732e-05
3 *673:A2 3.63588e-05
4 *317:3 0.000764191
5 *317:4 0.000621319
6 *317:4 *519:A1 9.21488e-05

*RES
1 *673:A2 *317:4 4.36175
2 *317:4 *317:3 11.6898
3 *317:3 *529:ZN 3.82042
4 *530:A2 *317:3 7.2515
*END

*D_NET *318 0.00216222

*CONN
*I *387:I I *C 56.95 4.1 *L 0.000884 *D DEL050D1BWP
*I *537:A2 I *C 64.09 5.36 *L 0.00046 *D NR2D0BWP
*I *520:A2 I *C 56.95 5.36 *L 0.000611 *D CKND2D1BWP
*I *434:Q O *C 56.39 2.98 *L 0 *D DFCNQD1BWP

*CAP
1 *537:A2 0.000130951
2 *520:A2 6.9201e-05
3 *434:Q 0.000226378
4 *387:I 1.38879e-05
5 *318:4 0.000304401
6 *318:5 0.000323415
7 *318:6 0.000321031
8 *318:4 *40:164 0.000205874
9 *318:4 *40:166 0.000153959
10 *318:4 *40:165 1.37091e-06
11 *537:A2 *40:162 0.000141025
12 *537:A2 *131:61 8.40425e-05
13 *537:A2 *319:8 0.000186682

*RES
1 *387:I *318:6 2.00689
2 *318:6 *434:Q 9.2901
3 *318:5 *318:6 3.60048
4 *520:A2 *318:5 4.5346
5 *318:4 *318:5 10.1544
6 *537:A2 *318:4 15.0038
*END

*D_NET *319 0.00556749

*CONN
*I *607:A1 I *C 79.91 5.36 *L 0.00042 *D AOI21D0BWP
*I *598:A1 I *C 63.39 3.82 *L 0.000423 *D CKND2D0BWP
*I *596:A1 I *C 54.43 2.56 *L 0.000441 *D OAI21D0BWP
*I *525:I I *C 63.81 5.22 *L 0.000655 *D CKND1BWP
*I *520:A1 I *C 57.23 5.22 *L 0.000569 *D CKND2D1BWP
*I *435:Q O *C 53.17 5.5 *L 0 *D DFCNQD1BWP

*CAP
1 *607:A1 0.000274777
2 *525:I 6.51479e-05
3 *598:A1 6.73532e-05
4 *520:A1 0.000126004
5 *435:Q 9.68575e-05
6 *596:A1 0.000163138
7 *319:6 0.000159442
8 *319:7 0.000281811
9 *319:8 0.000228941
10 *319:9 0.000169575
11 *319:10 0.000549912
12 *319:11 0.000772238
13 *319:12 0.000451565
14 *319:12 *160:10 0.000137925
15 *598:A1 *261:5 0.000121117
16 *319:10 *494:CP 5.42402e-06
17 *319:9 *40:164 9.33707e-05
18 *319:8 *40:162 0.000262618
19 *319:6 *40:164 0.000112057
20 *319:6 *40:160 0.000169247
21 *319:10 *185:3 0.000117064
22 *319:8 *131:61 0.000132203
23 *319:8 *537:A2 0.000186682
24 *607:A1 *313:9 0.000373363
25 *607:A1 *96:5 0.000449657

*RES
1 *596:A1 *319:12 8.83043
2 *319:12 *435:Q 8.25667
3 *520:A1 *319:11 7.44486
4 *319:11 *319:12 5.64027
5 *598:A1 *319:10 5.25618
6 *319:10 *319:11 11.7048
7 *319:9 *319:10 1.22154
8 *525:I *319:9 6.4044
9 *319:8 *319:9 8.48019
10 *319:7 *319:6 0.255227
11 *319:6 *319:8 12.763
12 *607:A1 *319:7 17.0604
*END

*D_NET *320 0.0011853

*CONN
*I *625:A1 I *C 254.21 5.36 *L 0.00042 *D AOI21D0BWP
*I *624:A1 I *C 255.61 5.08 *L 0.000441 *D OAI21D0BWP
*I *585:A2 I *C 257.57 2.7 *L 0.000626 *D AN4D2BWP
*I *445:Q O *C 256.31 2.98 *L 0 *D DFCNQD1BWP

*CAP
1 *585:A2 0.000109434
2 *445:Q 0.000123858
3 *624:A1 1.26362e-05
4 *625:A1 8.92878e-05
5 *320:4 0.000205398
6 *320:5 0.000292897
7 *625:A1 *625:A2 0.0001055
8 *625:A1 *269:2 0.000118136
9 *320:5 *49:53 0.00012815

*RES
1 *625:A1 *320:5 14.714
2 *320:5 *320:4 12.1611
3 *624:A1 *320:5 3.85904
4 *320:4 *445:Q 4.15361
5 *585:A2 *445:Q 9.87482
*END

*D_NET *321 0.00262749

*CONN
*I *621:I I *C 262.89 3.82 *L 0.000464 *D INVD0BWP
*I *584:A3 I *C 274.09 5.22 *L 0.000482 *D AN4D0BWP
*I *444:Q O *C 263.17 5.5 *L 0 *D DFCNQD1BWP

*CAP
1 *584:A3 8.82149e-05
2 *444:Q 1.0252e-05
3 *621:I 9.14335e-05
4 *321:3 0.000717998
5 *321:4 0.000682414
6 *321:5 0.000133812
7 *621:I *437:CP 9.36389e-05
8 *321:5 *437:CP 6.25849e-06
9 *321:3 *243:4 0.000200272
10 *321:3 *73:4 0.00040853
11 *321:3 *232:3 0.000194669

*RES
1 *621:I *321:5 5.84376
2 *321:5 *321:4 2.42209
3 *321:4 *444:Q 3.8203
4 *321:3 *321:4 22.6815
5 *584:A3 *321:3 6.84416
*END

*D_NET *322 0.000929952

*CONN
*I *374:I I *C 259.81 4.1 *L 0.000884 *D DEL050D1BWP
*I *585:A1 I *C 257.85 2.7 *L 0.000623 *D AN4D2BWP
*I *443:Q O *C 259.39 5.5 *L 0 *D DFCNQD1BWP

*CAP
1 *374:I 3.37958e-05
2 *443:Q 0.000100553
3 *585:A1 0.000229299
4 *322:3 0.00013572
5 *322:4 0.000298262
6 *585:A1 *620:B 0.000132322

*RES
1 *585:A1 *322:4 16.84
2 *322:4 *322:3 2.20013
3 *322:3 *443:Q 6.9977
4 *374:I *322:4 2.31969
*END

*D_NET *323 0.000330091

*CONN
*I *616:I I *C 270.17 2.7 *L 0.000464 *D INVD0BWP
*I *582:A3 I *C 269.61 2.56 *L 0.000541 *D NR4D0BWP
*I *442:Q O *C 269.89 3.54 *L 0 *D DFCNQD1BWP

*CAP
1 *616:I 1.16229e-05
2 *442:Q 2.16365e-05
3 *582:A3 5.40614e-05
4 *323:3 9.93609e-05
5 *323:4 0.000143409

*RES
1 *582:A3 *323:4 5.03147
2 *323:4 *323:3 1.95324
3 *323:3 *442:Q 4.11057
4 *616:I *323:4 3.88467
*END

*D_NET *324 0.00158608

*CONN
*I *371:I I *C 282.49 5.22 *L 0.000467 *D CKBD0BWP
*I *584:A2 I *C 274.23 5.36 *L 0.000469 *D AN4D0BWP
*I *441:Q O *C 283.05 5.5 *L 0 *D DFCNQD1BWP

*CAP
1 *371:I 1.23978e-05
2 *441:Q 4.52399e-05
3 *584:A2 5.84126e-05
4 *324:3 0.000107765
5 *324:4 0.000166059
6 *324:5 0.000187218
7 *324:6 0.0001297
8 *324:6 *40:81 4.76837e-07
9 *324:6 *438:CP 1.01328e-06
10 *324:6 *40:79 8.58307e-06
11 *324:5 *40:80 0.000156015
12 *324:5 *40:77 0.000164211
13 *324:4 *40:77 8.40425e-06
14 *324:4 *40:79 0.000156015
15 *324:5 *98:6 0.000384569

*RES
1 *584:A2 *324:6 4.94814
2 *324:6 *324:5 8.5597
3 *324:5 *324:4 12.785
4 *324:3 *441:Q 4.44639
5 *324:4 *324:3 8.0719
6 *371:I *324:3 3.82006
*END

*D_NET *325 0.00112689

*CONN
*I *584:A1 I *C 274.51 5.22 *L 0.000444 *D AN4D0BWP
*I *506:I I *C 277.73 2.7 *L 0.000464 *D INVD0BWP
*I *440:Q O *C 277.03 5.5 *L 0 *D DFCNQD1BWP

*CAP
1 *506:I 0.00018996
2 *440:Q 0.000340939
3 *584:A1 8.16584e-05
4 *325:3 0.000181794
5 *325:4 0.000112474
6 *506:I *440:CDN 0.00022006

*RES
1 *584:A1 *325:4 5.58186
2 *325:4 *325:3 0.60761
3 *325:3 *440:Q 4.97866
4 *506:I *440:Q 17.0076
*END

*D_NET *326 0.00215161

*CONN
*I *368:I I *C 282.35 2.42 *L 0.000884 *D DEL050D1BWP
*I *582:A2 I *C 269.47 2.7 *L 0.000497 *D NR4D0BWP
*I *439:Q O *C 282.77 2.98 *L 0 *D DFCNQD1BWP

*CAP
1 *439:Q 1.93119e-05
2 *368:I 1.19805e-05
3 *582:A2 0.000318646
4 *326:3 5.99623e-05
5 *326:4 0.00050658
6 *326:5 0.000796556
7 *582:A2 *268:11 0.000122905
8 *582:A2 *90:4 0.000179887
9 *326:4 *13:3 0.000135779

*RES
1 *582:A2 *326:5 29.1809
2 *326:5 *326:4 10.4581
3 *326:4 *326:3 1.75333
4 *368:I *326:3 3.86631
5 *326:3 *439:Q 4.44114
*END

*D_NET *327 0.00111496

*CONN
*I *589:I I *C 276.89 3.82 *L 0.000464 *D INVD0BWP
*I *583:A1 I *C 273.67 2.7 *L 0.000443 *D NR2D0BWP
*I *438:Q O *C 277.31 2.98 *L 0 *D DFCNQD1BWP

*CAP
1 *438:Q 2.71201e-05
2 *589:I 9.87649e-05
3 *583:A1 0.000251293
4 *327:3 4.01735e-05
5 *327:4 0.000136077
6 *327:5 0.000301659
7 *583:A1 *262:6 0.000259876

*RES
1 *583:A1 *327:5 10.7818
2 *589:I *327:4 5.16176
3 *327:5 *327:3 0.413418
4 *327:4 *327:5 2.18153
5 *327:3 *438:Q 2.21908
*END

*D_NET *328 0.00105131

*CONN
*I *367:I I *C 265.55 4.1 *L 0.000884 *D DEL050D1BWP
*I *582:A1 I *C 269.19 2.7 *L 0.00049 *D NR4D0BWP
*I *437:Q O *C 266.11 2.98 *L 0 *D DFCNQD1BWP

*CAP
1 *582:A1 0.000216424
2 *437:Q 8.07643e-05
3 *367:I 0.000122845
4 *328:3 0.000420034
5 *582:A1 *57:6 9.799e-05
6 *582:A1 *233:4 0.000113249

*RES
1 *367:I *328:3 7.6803
2 *328:3 *437:Q 6.60372
3 *582:A1 *328:3 13.0442
*END

*D_NET *329 0.00159794

*CONN
*I *583:A2 I *C 273.39 2.84 *L 0.00046 *D NR2D0BWP
*I *580:I I *C 268.63 3.82 *L 0.000464 *D INVD0BWP
*I *436:Q O *C 269.05 5.5 *L 0 *D DFCNQD1BWP

*CAP
1 *583:A2 0.000414491
2 *436:Q 1.31726e-05
3 *580:I 0.000113249
4 *329:3 0.000480771
5 *329:4 0.000166357
6 *583:A2 *243:4 0.000243425
7 *583:A2 *73:3 8.55923e-05
8 *583:A2 *28:3 8.08835e-05

*RES
1 *580:I *329:4 5.53453
2 *329:4 *329:3 3.22068
3 *329:3 *436:Q 3.86631
4 *583:A2 *329:3 18.8046
*END

*D_NET *330 0.0130841

*CONN
*I *375:I I *C 131.29 5.22 *L 0.000656 *D CKBD1BWP
*I *579:I I *C 215.71 2.7 *L 0.000464 *D INVD0BWP
*I *433:Q O *C 134.09 2.98 *L 0 *D DFCNQD1BWP

*CAP
1 *579:I 0.000393271
2 *433:Q 2.71797e-05
3 *375:I 0.000401556
4 *330:3 0.000761271
5 *330:4 0.000535905
6 *330:5 0.00017488
7 *330:6 0.000266135
8 *330:7 0.000581145
9 *330:8 0.000904143
10 *330:9 0.000291586
11 *330:10 0.000275373
12 *330:11 7.08699e-05
13 *330:12 0.000482202
14 *330:13 0.000101328
15 *330:14 0.000630319
16 *330:14 *40:135 0.000100076
17 *375:I *500:CP 4.3571e-05
18 *330:8 *40:137 2.68221e-06
19 *330:8 *40:133 0.000100076
20 *330:3 *456:CP 3.016e-05
21 *579:I *457:CP 6.55651e-07
22 *330:14 *76:4 0.00146425
23 *330:8 *76:12 0.00146425
24 *330:14 *395:I 2.5034e-06
25 *330:13 *130:2 0.000451386
26 *330:13 *395:I 8.70228e-06
27 *330:10 *130:2 9.50694e-05
28 *330:9 *130:2 0.000679374
29 *330:14 *104:2 0.000124335
30 *330:8 *91:8 0.00094533
31 *330:7 *214:4 0.000158787
32 *330:4 *256:12 0.000219822
33 *330:4 *90:6 0.000634789
34 *330:3 *63:3 0.000360727
35 *579:I *124:2 0.000103116
36 *579:I *410:I 0.000197291

*RES
1 *330:14 *330:13 3.30722
2 *375:I *330:12 13.5623
3 *330:11 *433:Q 4.15373
4 *330:12 *330:11 2.17342
5 *330:10 *330:12 6.02996
6 *330:9 *330:10 19.0264
7 *330:13 *330:9 12.6227
8 *330:8 *330:14 42.1642
9 *330:7 *330:8 16.8296
10 *330:6 *330:7 13.7597
11 *330:5 *330:6 0.255108
12 *330:4 *330:5 11.6132
13 *330:3 *330:4 11.7491
14 *579:I *330:3 16.0832
*END

*D_NET *331 0.00443363

*CONN
*I *372:I I *C 70.39 4.1 *L 0.000884 *D DEL050D1BWP
*I *560:A1 I *C 88.03 5.22 *L 0.000423 *D CKND2D0BWP
*I *550:A1 I *C 77.67 5.22 *L 0.000569 *D CKND2D1BWP
*I *521:I I *C 72.35 3.82 *L 0.000464 *D INVD0BWP
*I *448:Q O *C 71.23 2.98 *L 0 *D DFCNQD1BWP

*CAP
1 *560:A1 0.000154197
2 *550:A1 6.28233e-05
3 *521:I 6.07371e-05
4 *448:Q 2.19345e-05
5 *372:I 0.000112176
6 *331:5 0.000544012
7 *331:6 0.000533879
8 *331:7 0.000370681
9 *331:8 0.00034374
10 *331:9 0.000221074
11 *331:10 0.000192106
12 *331:8 *251:13 0.000210285
13 *331:7 *260:13 0.000444889
14 *331:7 *160:7 0.000507951
15 *331:6 *314:14 0.000160098
16 *331:5 *182:7 0.00049305

*RES
1 *372:I *331:10 5.56946
2 *331:10 *331:9 4.35185
3 *331:9 *448:Q 2.11716
4 *331:8 *331:9 5.21195
5 *521:I *331:8 4.45676
6 *550:A1 *331:7 4.45676
7 *331:7 *331:8 16.0004
8 *331:6 *331:7 6.74295
9 *331:5 *331:6 10.6951
10 *560:A1 *331:5 10.1829
*END

*D_NET *332 0.00112545

*CONN
*I *542:I I *C 84.53 3.82 *L 0.000464 *D INVD0BWP
*I *539:A1 I *C 85.23 5.22 *L 0.000569 *D CKND2D1BWP
*I *447:Q O *C 81.31 2.98 *L 0 *D DFCNQD1BWP

*CAP
1 *539:A1 0.000180006
2 *542:I 4.65512e-05
3 *447:Q 0.000274599
4 *332:3 0.000501156
5 *332:3 *251:12 0.000123143

*RES
1 *332:3 *447:Q 13.2664
2 *542:I *332:3 7.93898
3 *539:A1 *332:3 10.6384
*END

*D_NET *333 0.00299406

*CONN
*I *394:I I *C 85.79 2.7 *L 0.000467 *D CKBD0BWP
*I *672:A1 I *C 96.85 5.22 *L 0.000492 *D NR3D0BWP
*I *545:A1 I *C 87.19 5.22 *L 0.000569 *D CKND2D1BWP
*I *541:I I *C 86.49 5.22 *L 0.000464 *D INVD0BWP
*I *539:A2 I *C 85.51 5.36 *L 0.000611 *D CKND2D1BWP
*I *446:Q O *C 85.65 2.98 *L 0 *D DFCNQD1BWP

*CAP
1 *672:A1 7.81417e-05
2 *545:A1 1.32322e-05
3 *541:I 8.46386e-06
4 *394:I 4.36902e-05
5 *446:Q 3.34382e-05
6 *539:A2 9.71556e-06
7 *333:6 0.000190735
8 *333:7 0.000181079
9 *333:8 0.000149786
10 *333:9 0.000123382
11 *333:10 0.000213027
12 *333:11 0.000271142
13 *333:12 7.55787e-05
14 *333:7 *268:35 0.000483811
15 *333:6 *268:34 0.000483811
16 *333:6 *314:12 0.000635028

*RES
1 *539:A2 *333:12 3.84104
2 *333:11 *446:Q 4.35424
3 *333:12 *333:10 3.91471
4 *333:10 *333:11 7.1888
5 *394:I *333:11 5.0739
6 *333:9 *333:12 1.03271
7 *541:I *333:9 3.82626
8 *545:A1 *333:8 3.86631
9 *333:8 *333:9 1.54042
10 *333:7 *333:8 8.62837
11 *672:A1 *333:6 12.5153
12 *333:6 *333:7 21.3197
*END

*D_NET *334 0.000499844

*CONN
*I *390:I I *C 103.71 5.22 *L 0.000464 *D DEL125D1BWP
*I *449:Q O *C 104.55 3.54 *L 0 *D DFCNQD1BWP

*CAP
1 *449:Q 0.000142515
2 *390:I 2.46763e-05
3 *334:2 0.000179052
4 *334:3 6.1214e-05
5 *390:I *195:7 9.23872e-05

*RES
1 *390:I *334:3 5.09942
2 *334:3 *334:2 2.29549
3 *334:2 *449:Q 7.87032
*END

*D_NET *335 0.000376821

*CONN
*I *385:I I *C 93.21 3.82 *L 0.000464 *D DEL125D1BWP
*I *450:Q O *C 93.07 2.98 *L 0 *D DFCNQD1BWP

*CAP
1 *450:Q 0.00018841
2 *385:I 0.00018841

*RES
1 *385:I *450:Q 13.6021
*END

*D_NET *336 0.00056529

*CONN
*I *389:Z O *C 77.39 3.54 *L 0 *D DEL125D1BWP
*I *454:D I *C 75.15 2.7 *L 0.000567 *D DFCNQD1BWP

*CAP
1 *389:Z 0.000112295
2 *454:D 0.00017035
3 *336:2 0.000282645

*RES
1 *454:D *336:2 13.8949
2 *336:2 *389:Z 6.07085
*END

*D_NET *337 0.00151229

*CONN
*I *630:I I *C 110.57 3.82 *L 0.000464 *D INVD0BWP
*I *629:A1 I *C 110.71 2.7 *L 0.000443 *D NR2D0BWP
*I *627:A2 I *C 108.61 3.68 *L 0.00046 *D NR2D0BWP
*I *452:Q O *C 108.19 5.5 *L 0 *D DFCNQD1BWP

*CAP
1 *629:A1 0.00011611
2 *630:I 1.49012e-05
3 *627:A2 4.90546e-05
4 *452:Q 0.00011164
5 *337:4 0.000134826
6 *337:5 0.000174224
7 *337:6 0.000301301
8 *627:A2 *314:8 0.000117183
9 *627:A2 *407:I 0.000121593
10 *337:5 *311:9 0.000205755
11 *629:A1 *131:47 8.16584e-05
12 *629:A1 *161:3 8.40425e-05

*RES
1 *337:6 *452:Q 7.22861
2 *627:A2 *337:6 7.13766
3 *337:5 *337:6 10.8155
4 *630:I *337:5 3.91233
5 *629:A1 *337:4 8.48448
6 *337:4 *337:5 2.39789
*END

*D_NET *338 0.00197721

*CONN
*I *631:A2 I *C 111.41 2.84 *L 0.00046 *D NR2D0BWP
*I *629:A2 I *C 110.43 2.84 *L 0.00046 *D NR2D0BWP
*I *626:I I *C 110.15 5.22 *L 0.000464 *D INVD0BWP
*I *453:Q O *C 105.25 2.98 *L 0 *D DFCNQD1BWP

*CAP
1 *631:A2 9.5427e-05
2 *629:A2 2.2769e-05
3 *453:Q 0.000250041
4 *626:I 0.000180662
5 *338:4 0.000283301
6 *338:5 0.000286579
7 *626:I *131:47 0.000108004
8 *626:I *272:5 0.00013411
9 *338:4 *172:13 0.000359178
10 *338:4 *628:A2 0.000159085
11 *631:A2 *279:2 9.80496e-05

*RES
1 *626:I *338:5 10.7557
2 *338:4 *453:Q 13.846
3 *338:5 *338:4 0.218511
4 *629:A2 *338:4 6.14464
5 *631:A2 *338:5 8.60226
*END

*D_NET *339 0.0089854

*CONN
*I *645:A3 I *C 119.25 2.84 *L 0.000465 *D ND3D0BWP
*I *640:B I *C 108.47 2.7 *L 0.000468 *D AOI21D0BWP
*I *637:A3 I *C 120.51 2.84 *L 0.000465 *D ND3D0BWP
*I *628:B I *C 109.87 2.7 *L 0.000468 *D AOI21D0BWP
*I *454:Q O *C 77.53 2.98 *L 0 *D DFCNQD1BWP

*CAP
1 *637:A3 0.000111878
2 *645:A3 7.86781e-05
3 *628:B 7.33137e-05
4 *640:B 9.66787e-05
5 *454:Q 0.000587106
6 *339:5 0.000408888
7 *339:6 0.000307322
8 *339:7 0.000183403
9 *339:8 0.000378072
10 *339:9 0.000755966
11 *339:10 0.00103605
12 *339:10 *40:157 0.000128478
13 *339:10 *447:CP 4.1604e-05
14 *339:10 *40:156 0.000216305
15 *339:10 *484:CP 4.40478e-05
16 *339:10 *450:CP 4.32134e-05
17 *454:Q *40:158 0.000128478
18 *454:Q *40:157 0.000216305
19 *339:9 *501:CP 1.90735e-05
20 *339:8 *453:CP 2.55704e-05
21 *339:10 *131:54 0.000329912
22 *454:Q *131:55 0.000329912
23 *339:10 *39:7 0.000261188
24 *339:10 *161:7 0.000861526
25 *339:10 *447:D 0.00014329
26 *339:9 *30:2 0.000254512
27 *339:8 *189:4 0.000445604
28 *339:8 *640:A2 0.000166655
29 *339:5 *172:12 0.000380874
30 *339:5 *85:9 0.000483513
31 *339:5 *103:6 0.000241518
32 *339:5 *290:2 0.00020647

*RES
1 *339:10 *454:Q 42.7582
2 *339:9 *339:10 13.4888
3 *339:8 *339:9 12.114
4 *640:B *339:7 13.9682
5 *339:7 *339:8 11.6401
6 *628:B *339:6 12.2466
7 *339:6 *339:7 1.544
8 *339:5 *339:6 18.2987
9 *645:A3 *339:5 12.3024
10 *637:A3 *339:5 14.0145
*END

*D_NET *340 0.00193429

*CONN
*I *614:A1 I *C 233.49 3.68 *L 0.00042 *D AOI21D0BWP
*I *613:A1 I *C 232.65 2.56 *L 0.000441 *D OAI21D0BWP
*I *514:A3 I *C 226.91 3.68 *L 0.000647 *D ND4D1BWP
*I *462:Q O *C 234.33 2.98 *L 0 *D DFCNQD1BWP

*CAP
1 *614:A1 9.37581e-05
2 *462:Q 4.24385e-05
3 *613:A1 1.23382e-05
4 *514:A3 0.000445783
5 *340:4 0.000152886
6 *340:5 0.000474811
7 *514:A3 *240:8 0.000156403
8 *514:A3 *229:4 9.25064e-05
9 *514:A3 *258:5 0.00018692
10 *340:5 *257:2 0.00013113
11 *614:A1 *49:60 0.000145316

*RES
1 *514:A3 *340:5 23.0482
2 *340:5 *340:4 1.23322
3 *613:A1 *340:5 3.86655
4 *340:4 *462:Q 5.45382
5 *614:A1 *340:4 14.5199
*END

*D_NET *341 0.00278306

*CONN
*I *576:I I *C 231.39 5.22 *L 0.000464 *D INVD0BWP
*I *513:A3 I *C 220.33 5.08 *L 0.000541 *D NR4D0BWP
*I *461:Q O *C 232.79 5.5 *L 0 *D DFCNQD1BWP

*CAP
1 *576:I 1.61529e-05
2 *461:Q 0.000103593
3 *513:A3 0.000130177
4 *341:3 0.000190318
5 *341:4 0.000515878
6 *341:5 0.000543177
7 *513:A3 *178:4 0.000386477
8 *341:5 *49:61 0.000105262
9 *341:5 *250:10 0.000467896
10 *341:5 *74:20 0.00032413

*RES
1 *513:A3 *341:5 9.78839
2 *341:5 *341:4 23.6208
3 *341:4 *341:3 4.89175
4 *341:3 *461:Q 3.94976
5 *576:I *341:4 2.00784
*END

*D_NET *342 0.00122321

*CONN
*I *574:A1 I *C 229.57 2.56 *L 0.000464 *D OA211D0BWP
*I *573:A1 I *C 228.73 3.82 *L 0.000423 *D CKND2D0BWP
*I *514:A1 I *C 227.33 3.68 *L 0.000622 *D ND4D1BWP
*I *460:Q O *C 228.03 5.5 *L 0 *D DFCNQD1BWP

*CAP
1 *574:A1 0.000178695
2 *573:A1 1.51396e-05
3 *460:Q 1.21593e-05
4 *514:A1 0.000105321
5 *342:4 0.000220597
6 *342:5 0.000148237
7 *342:6 0.000268161
8 *574:A1 *225:5 0.000129819
9 *574:A1 *229:6 0.000145078

*RES
1 *514:A1 *342:6 4.2733
2 *342:6 *342:5 5.50568
3 *342:5 *460:Q 3.84092
4 *573:A1 *342:4 2.00784
5 *342:4 *342:6 0.798583
6 *574:A1 *342:4 12.2863
*END

*D_NET *343 0.000934005

*CONN
*I *566:I I *C 226.35 5.22 *L 0.000464 *D INVD0BWP
*I *514:A2 I *C 227.05 3.68 *L 0.000623 *D ND4D1BWP
*I *459:Q O *C 228.17 2.98 *L 0 *D DFCNQD1BWP

*CAP
1 *514:A2 6.26445e-05
2 *459:Q 8.07643e-05
3 *566:I 4.80413e-05
4 *343:3 0.000338197
5 *343:4 0.000243187
6 *343:5 0.000161171

*RES
1 *566:I *343:5 4.65012
2 *343:4 *459:Q 3.33941
3 *343:3 *343:4 4.72391
4 *343:5 *343:3 3.64089
5 *514:A2 *343:3 6.24382
*END

*D_NET *344 0.00149375

*CONN
*I *575:A1 I *C 222.29 3.96 *L 0.000464 *D OA211D0BWP
*I *567:A1 I *C 221.59 5.22 *L 0.000423 *D CKND2D0BWP
*I *513:A2 I *C 220.47 5.22 *L 0.000497 *D NR4D0BWP
*I *458:Q O *C 220.89 2.98 *L 0 *D DFCNQD1BWP

*CAP
1 *575:A1 6.58631e-05
2 *567:A1 2.94447e-05
3 *513:A2 0.000125825
4 *458:Q 4.39286e-05
5 *344:4 0.00028646
6 *344:5 0.000147462
7 *344:6 0.000336647
8 *344:7 0.000152171
9 *567:A1 *226:4 8.97646e-05
10 *344:4 *210:5 9.4831e-05
11 *344:4 *99:6 0.000121355

*RES
1 *344:7 *458:Q 4.44639
2 *344:6 *344:7 3.62265
3 *513:A2 *344:6 7.37774
4 *567:A1 *344:5 4.7431
5 *575:A1 *344:4 6.40249
6 *344:4 *344:6 7.32756
7 *344:5 *344:4 3.73626
*END

*D_NET *345 0.000916243

*CONN
*I *563:I I *C 219.63 5.22 *L 0.000464 *D INVD0BWP
*I *513:A1 I *C 220.75 5.22 *L 0.00049 *D NR4D0BWP
*I *457:Q O *C 219.77 2.98 *L 0 *D DFCNQD1BWP

*CAP
1 *513:A1 0.000191867
2 *457:Q 2.22921e-05
3 *563:I 7.9453e-05
4 *345:3 0.000186801
5 *345:4 0.000435829

*RES
1 *563:I *345:4 4.61495
2 *345:3 *457:Q 4.01568
3 *345:4 *345:3 4.61376
4 *513:A1 *345:4 8.86643
*END

*D_NET *346 0.00107342

*CONN
*I *524:A2 I *C 212.07 5.36 *L 0.00046 *D NR2D0BWP
*I *512:I I *C 216.27 5.22 *L 0.000464 *D INVD0BWP
*I *455:Q O *C 215.71 3.54 *L 0 *D DFCNQD1BWP

*CAP
1 *512:I 4.74453e-05
2 *455:Q 0.000130534
3 *524:A2 0.000240743
4 *346:3 0.000170529
5 *346:4 0.000328183
6 *524:A2 *365:I 0.000155985

*RES
1 *524:A2 *346:4 8.99565
2 *346:4 *346:3 2.20072
3 *346:3 *455:Q 7.60961
4 *512:I *346:4 2.83682
*END

*D_NET *347 0.00476742

*CONN
*I *393:I I *C 193.31 4.1 *L 0.000884 *D DEL050D1BWP
*I *673:A1 I *C 190.93 2.7 *L 0.00108 *D NR3D1BWP
*I *535:A2 I *C 179.17 3.82 *L 0.00118 *D NR2D2BWP
*I *532:A2 I *C 177.91 2.84 *L 0.00106 *D NR2XD1BWP
*I *517:I I *C 190.93 5.22 *L 0.000464 *D INVD0BWP
*I *515:A1 I *C 193.03 2.7 *L 0.000423 *D CKND2D0BWP
*I *510:A2 I *C 192.19 5.22 *L 0.00107 *D NR3D1BWP
*I *465:Q O *C 193.87 2.98 *L 0 *D DFCNQD1BWP

*CAP
1 *393:I 1.62125e-05
2 *465:Q 6.12736e-05
3 *515:A1 1.06692e-05
4 *510:A2 1.4782e-05
5 *517:I 6.86049e-05
6 *673:A1 1.32322e-05
7 *535:A2 0.000175357
8 *532:A2 0.000127435
9 *347:8 9.01818e-05
10 *347:9 0.000234604
11 *347:10 0.00018698
12 *347:11 0.000231504
13 *347:12 0.000202656
14 *347:13 0.000497997
15 *347:14 0.000445306
16 *347:15 0.000341058
17 *532:A2 *71:5 9.66787e-05
18 *347:14 *238:8 0.000789404
19 *347:14 *21:7 0.000391364
20 *347:14 *173:4 0.000223637
21 *517:I *510:A3 0.000130057
22 *517:I *213:4 0.000141144
23 *347:10 *531:A2 0.000160098
24 *347:10 *237:4 0.000117183

*RES
1 *532:A2 *347:15 9.44424
2 *535:A2 *347:15 10.8993
3 *347:14 *347:13 15.7496
4 *347:15 *347:14 4.33874
5 *347:13 *347:12 11.2126
6 *673:A1 *347:12 3.8662
7 *347:12 *347:11 8.27098
8 *517:I *347:10 7.55334
9 *347:10 *347:9 11.1016
10 *510:A2 *347:10 3.91233
11 *515:A1 *347:8 3.82018
12 *347:8 *465:Q 4.85289
13 *347:11 *347:8 3.92115
14 *347:9 *347:11 6.05917
15 *393:I *347:9 4.34315
*END

*D_NET *348 0.00283337

*CONN
*I *382:I I *C 186.31 3.82 *L 0.000661 *D DEL175D1BWP
*I *531:A2 I *C 193.45 5.22 *L 0.00046 *D OR2D0BWP
*I *515:A2 I *C 192.75 2.84 *L 0.000441 *D CKND2D0BWP
*I *509:I I *C 190.93 3.82 *L 0.000464 *D INVD0BWP
*I *464:Q O *C 186.17 2.98 *L 0 *D DFCNQD1BWP

*CAP
1 *531:A2 0.000231147
2 *515:A2 0.000112355
3 *509:I 1.35899e-05
4 *464:Q 0.000132263
5 *382:I 6.58035e-05
6 *348:5 0.000429034
7 *348:6 0.000264525
8 *348:7 0.000363469
9 *382:I *470:CP 1.90735e-06
10 *382:I *40:119 2.98023e-07
11 *348:7 *40:118 0.000149548
12 *348:7 *40:114 8.41618e-05
13 *348:6 *40:116 0.000149548
14 *348:6 *40:114 1.75238e-05
15 *348:6 *40:112 8.41618e-05
16 *348:6 *84:7 0.000380099
17 *348:5 *38:2 0.000193834
18 *531:A2 *347:10 0.000160098

*RES
1 *382:I *348:7 4.61245
2 *348:7 *464:Q 7.43604
3 *348:6 *348:7 17.2507
4 *509:I *348:6 3.86631
5 *348:5 *348:6 5.30791
6 *515:A2 *348:5 8.04818
7 *531:A2 *348:5 10.8925
*END

*D_NET *349 0.0014056

*CONN
*I *376:I I *C 200.31 3.82 *L 0.000388 *D DEL100D1BWP
*I *528:A2 I *C 198.21 5.36 *L 0.00046 *D NR2D0BWP
*I *508:A1 I *C 196.81 5.22 *L 0.000423 *D CKND2D0BWP
*I *463:Q O *C 201.43 5.5 *L 0 *D DFCNQD1BWP

*CAP
1 *463:Q 7.25389e-05
2 *376:I 0.000126719
3 *528:A2 1.31726e-05
4 *508:A1 8.10027e-05
5 *349:4 0.000168025
6 *349:5 0.000337541
7 *349:6 0.00027138
8 *349:7 0.000115514
9 *349:6 *222:7 0.000219703

*RES
1 *508:A1 *349:7 3.281
2 *349:7 *349:6 1.12545
3 *528:A2 *349:6 3.8662
4 *349:6 *349:5 9.0965
5 *376:I *349:4 7.40612
6 *349:5 *463:Q 3.35431
7 *349:4 *349:5 2.20025
*END

*D_NET *350 0.000314236

*CONN
*I *388:I I *C 166.71 5.22 *L 0.000464 *D DEL125D1BWP
*I *468:Q O *C 168.11 5.5 *L 0 *D DFCNQD1BWP

*CAP
1 *468:Q 2.69413e-05
2 *388:I 5.45979e-05
3 *350:2 3.79086e-05
4 *350:3 6.55651e-05
5 *388:I *49:84 0.000129223

*RES
1 *388:I *350:3 6.2741
2 *350:2 *468:Q 4.19438
3 *350:3 *350:2 0.254989
*END

*D_NET *351 0.000924706

*CONN
*I *386:I I *C 177.91 5.22 *L 0.000464 *D DEL125D1BWP
*I *470:Q O *C 182.67 5.5 *L 0 *D DFCNQD1BWP

*CAP
1 *470:Q 7.52211e-05
2 *386:I 5.00679e-05
3 *351:2 0.000284493
4 *351:3 0.00025934
5 *351:3 *179:3 0.000255585

*RES
1 *386:I *351:3 4.85289
2 *351:3 *351:2 8.71539
3 *351:2 *470:Q 5.91123
*END

*D_NET *352 0.00302911

*CONN
*I *392:I I *C 168.25 3.82 *L 0.000388 *D DEL100D1BWP
*I *472:Q O *C 181.97 2.98 *L 0 *D DFCNQD1BWP

*CAP
1 *472:Q 3.48091e-05
2 *392:I 0.000119388
3 *352:2 0.00026381
4 *352:3 0.000502586
5 *352:4 0.000310481
6 *352:5 0.000156283
7 *352:4 *354:5 0.000169754
8 *352:4 *41:11 0.000551343
9 *352:4 *71:6 0.000920653

*RES
1 *392:I *352:5 5.39064
2 *352:4 *352:3 12.9547
3 *352:5 *352:4 2.19047
4 *352:3 *352:2 8.72219
5 *352:2 *472:Q 5.61845
*END

*D_NET *353 0.00243527

*CONN
*I *652:I I *C 158.87 3.82 *L 0.000464 *D INVD0BWP
*I *651:A1 I *C 159.43 2.7 *L 0.000443 *D NR2D0BWP
*I *649:A2 I *C 156.07 5.36 *L 0.00046 *D NR2D0BWP
*I *469:Q O *C 162.23 5.5 *L 0 *D DFCNQD1BWP

*CAP
1 *469:Q 5.6982e-05
2 *651:A1 0.000139773
3 *652:I 8.28505e-06
4 *649:A2 0.000240624
5 *353:4 0.000205338
6 *353:5 0.000313401
7 *353:6 0.000274181
8 *649:A2 *301:6 0.000222206
9 *649:A2 *649:A1 8.9705e-05
10 *649:A2 *308:3 0.000301003
11 *353:5 *250:19 9.81688e-05
12 *353:5 *74:11 0.00014621
13 *353:4 *49:88 9.89437e-05
14 *353:4 *174:7 0.000110388
15 *651:A1 *651:A2 0.000130057

*RES
1 *649:A2 *353:6 23.9636
2 *652:I *353:6 3.87228
3 *353:6 *353:5 3.96061
4 *353:5 *353:4 16.0995
5 *651:A1 *353:5 10.2687
6 *353:4 *469:Q 5.92101
*END

*D_NET *354 0.00402683

*CONN
*I *653:A2 I *C 158.45 3.68 *L 0.00046 *D NR2D0BWP
*I *651:A2 I *C 159.71 2.84 *L 0.00046 *D NR2D0BWP
*I *648:I I *C 157.33 5.22 *L 0.000464 *D INVD0BWP
*I *471:Q O *C 175.39 3.54 *L 0 *D DFCNQD1BWP

*CAP
1 *471:Q 0.000142038
2 *651:A2 7.78437e-05
3 *653:A2 9.0003e-06
4 *648:I 0.000260413
5 *354:4 0.000437081
6 *354:5 0.000681996
7 *354:6 0.000424087
8 *354:7 0.000178218
9 *354:8 0.000332654
10 *648:I *74:11 8.39829e-05
11 *354:6 *197:2 0.000641346
12 *354:6 *660:B1 0.000137925
13 *354:5 *352:4 0.000169754
14 *651:A2 *651:A1 0.000130057
15 *354:4 *171:3 8.66652e-05
16 *354:4 *41:11 0.000233769

*RES
1 *648:I *354:8 12.7672
2 *653:A2 *354:8 3.86655
3 *354:8 *354:7 4.12107
4 *354:6 *354:5 11.2408
5 *354:7 *354:6 2.25782
6 *651:A2 *354:7 7.24471
7 *354:5 *354:4 11.1874
8 *354:4 *471:Q 6.86848
*END

*D_NET *355 0.00432122

*CONN
*I *667:A3 I *C 155.23 5.36 *L 0.000465 *D ND3D0BWP
*I *662:B I *C 149.49 5.22 *L 0.000468 *D AOI21D0BWP
*I *659:A3 I *C 156.91 5.36 *L 0.000465 *D ND3D0BWP
*I *650:B I *C 150.05 2.7 *L 0.000468 *D AOI21D0BWP
*I *473:Q O *C 164.89 3.54 *L 0 *D DFCNQD1BWP

*CAP
1 *473:Q 0.000113487
2 *659:A3 0.000106215
3 *667:A3 3.99947e-05
4 *650:B 0.000131547
5 *662:B 0.000104666
6 *355:5 0.000393212
7 *355:6 0.000442266
8 *355:7 0.000424504
9 *355:8 0.000154316
10 *355:9 0.000383675
11 *355:10 0.000137389
12 *662:B *300:7 0.000165105
13 *355:9 *194:4 0.00017643
14 *355:9 *197:2 0.000311136
15 *355:7 *250:20 0.000128269
16 *355:7 *42:14 0.0002352
17 *355:6 *171:5 0.000237584
18 *355:6 *308:3 0.000493884
19 *355:6 *307:4 0.000142336

*RES
1 *662:B *355:10 10.2916
2 *355:10 *355:9 4.60231
3 *650:B *355:8 10.0342
4 *355:9 *355:7 13.8143
5 *355:8 *355:9 3.91674
6 *667:A3 *355:7 8.11327
7 *355:7 *355:6 12.434
8 *659:A3 *355:6 9.25219
9 *355:6 *355:5 17.182
10 *355:5 *473:Q 6.83141
*END

